Mg
  1.000000
22.20416141	0.00000000	0.00000000
0.00000000	38.45873737	0.00000000
0.00000000	0.00000000	35.98843384
Mg 
1372 
car
 1.39373000	1.02192000	1.06106000
 1.79664000	0.87243000	6.58125000
 1.89623000	0.38461800	11.20050000
 2.55375000	1.00837000	16.40630000
 1.29734000	1.29460000	22.02540000
 2.13999000	0.66996500	26.84460000
 1.66904000	0.88336200	32.64540000
 1.76257000	6.79700000	1.66092000
 1.83504000	6.33015000	5.36008000
 1.64720000	6.27089000	11.61620000
 1.56673000	7.06144000	16.41620000
 2.07779000	6.94042000	21.43860000
 1.81778000	6.06162000	26.71030000
 1.97335000	7.19799000	32.47940000
 2.89579000	9.12833000	0.88367200
 2.02922000	12.11290000	6.10826000
 1.49587000	11.78690000	11.83720000
 0.50210000	11.09620000	16.24220000
 1.38011000	11.90170000	21.51170000
 2.31613000	11.68750000	27.44220000
 1.37179000	11.87680000	32.14290000
 2.07951000	17.31200000	1.40583000
 1.28288000	17.21960000	6.70125000
 1.06866000	17.49830000	11.67000000
 1.42718000	17.60090000	16.60540000
 1.11404000	16.97490000	21.67530000
 1.85671000	17.74370000	27.34640000
 1.30854000	17.03880000	32.66280000
 1.87652000	23.15310000	1.35915000
 1.19252000	22.86290000	6.31230000
 0.92749000	23.11110000	11.64140000
 1.68610000	22.84690000	16.97790000
 1.07474000	22.49630000	21.68250000
 1.41857000	23.14980000	26.77910000
 1.42169000	22.80340000	31.86750000
 1.15890000	28.07830000	1.42235000
 1.40105000	28.26130000	6.74309000
 0.93306100	28.46940000	11.40210000
 1.40159000	28.42310000	16.32050000
 0.77811000	28.02650000	21.79830000
 1.07675000	28.41340000	26.74290000
 1.39593000	28.26620000	32.21640000
 1.57978000	33.90240000	1.57380000
 1.30641000	33.39880000	6.93816000
 1.21611000	33.15360000	12.06780000
 1.71996000	33.50650000	16.32260000
 1.55007000	33.82180000	21.74640000
 2.01480000	34.14500000	26.52010000
 3.38576000	35.18930000	29.39070000
 4.45704000	0.44252100	0.82169600
 5.31120000	0.74922700	6.56727000
 5.54447000	0.43166100	11.67340000
 5.11243000	0.59221500	16.71660000
 4.93371000	1.40079000	21.54170000
 5.40455000	0.86534800	26.17420000
 3.67166000	2.29645000	34.57220000
 7.82725000	5.41830000	0.94991800
 4.57148000	5.89541000	6.20380000
 4.73097000	5.83447000	11.61720000
 4.42125000	6.73158000	16.15070000
 4.89280000	6.87958000	21.65510000
 5.01436000	6.26559000	26.99170000
 4.45180000	5.95495000	32.06540000
 5.27646000	11.35110000	1.23238000
 4.85681000	12.70940000	6.18029000
 4.77684000	11.42790000	10.86660000
 5.21947000	12.03150000	16.52090000
 5.83017000	11.33160000	21.71990000
 4.98899000	12.31410000	26.98200000
 5.21632000	11.73860000	32.19210000
 5.01972000	16.83150000	1.41323000
 4.18281000	17.78330000	5.87794000
 3.83866000	16.95180000	11.32210000
 4.49067000	17.23180000	16.40510000
 5.12962000	17.25300000	22.22920000
 5.22919000	17.53460000	27.57150000
 4.85285000	16.79870000	32.54110000
 4.59195000	23.00560000	1.36665000
 4.25869000	23.06750000	6.78436000
 4.29024000	22.82930000	11.80700000
 5.18686000	22.75440000	17.08300000
 4.65783000	22.67210000	22.23910000
 4.48701000	22.93390000	27.08160000
 4.78469000	23.01270000	32.21920000
 4.01651000	28.32950000	1.57484000
 5.24484000	28.29310000	6.18275000
 5.11898000	28.31960000	11.34180000
 4.69948000	28.00360000	16.88890000
 4.23371000	28.07700000	21.65870000
 4.20570000	28.43240000	27.09850000
 4.33471000	28.48650000	32.45810000
 5.21220000	33.99760000	1.29261000
 4.39110000	33.41050000	6.75091000
 4.17314000	33.74210000	11.63880000
 4.45753000	33.74930000	16.61780000
 4.75446000	33.94250000	21.91230000
 4.94965000	33.93130000	27.41060000
 4.85995000	33.87950000	32.19790000
 7.79519000	0.41442100	1.70932000
 8.44290000	0.93716500	6.60807000
 8.35119000	0.60607100	12.06200000
 8.79339000	1.13842000	17.17030000
 8.13479000	1.16075000	21.29230000
 8.27002000	0.95392800	26.36250000
 7.88658000	0.59333600	31.91100000
 9.51150000	8.81775000	1.18168000
 7.88503000	6.59765000	6.53518000
 8.04419000	6.44428000	11.02190000
 8.32670000	6.93387000	16.31080000
 7.70037000	6.03946000	21.01860000
 8.09209000	6.36289000	26.51590000
 7.80800000	5.51427000	31.44740000
 8.27008000	11.23790000	1.16651000
 7.65038000	11.02730000	6.44125000
 8.39229000	11.34440000	11.46610000
 8.33782000	12.01790000	16.69670000
 8.21108000	11.71780000	21.87800000
 8.02103000	12.02280000	27.01720000
 8.08896000	11.26480000	32.26800000
 8.57173000	17.22010000	0.97497300
 8.15784000	17.63420000	6.63782000
 7.80796000	17.18190000	11.71070000
 8.29094000	17.28850000	16.77760000
 8.14767000	17.53960000	21.81600000
 7.97740000	17.49760000	27.06850000
 7.86081000	17.25800000	32.42140000
 7.38473000	22.60840000	1.34234000
 7.91057000	22.44330000	6.89041000
 7.09499000	22.10570000	11.54980000
 7.81441000	22.70020000	16.57210000
 8.05437000	22.84810000	21.87300000
 7.43752000	23.49680000	27.21540000
 7.53967000	23.43660000	32.03620000
 7.57870000	28.41560000	1.88587000
 8.17289000	28.56500000	6.45652000
 8.34549000	28.04700000	11.64920000
 7.52979000	28.75930000	16.80780000
 7.73453000	28.54560000	21.87690000
 8.30229000	28.51610000	26.97540000
 7.21525000	28.58170000	32.72470000
 8.23735000	33.85790000	1.37431000
 7.84418000	34.01970000	6.34347000
 8.15400000	34.02530000	11.55840000
 8.13445000	33.66010000	16.79380000
 7.59432000	33.99610000	21.78440000
 7.79726000	33.51000000	27.45850000
 7.93549000	33.91250000	32.19840000
 11.27450000	0.67691500	1.59618000
 11.53540000	1.11659000	6.31440000
 11.11460000	1.04328000	11.70010000
 11.62040000	0.96024500	16.61260000
 10.81330000	1.69656000	22.01160000
 11.16380000	1.12179000	26.51550000
 11.39820000	38.39404617	32.30480000
 11.09850000	5.98758000	1.31910000
 11.37650000	6.22808000	6.60058000
 11.48030000	6.06619000	11.46790000
 11.22820000	6.87258000	16.85090000
 11.14640000	6.86685000	21.75600000
 11.12240000	6.79049000	26.93620000
 10.88190000	5.85696000	31.68350000
 13.95250000	11.94020000	1.50072000
 10.94370000	11.25200000	6.52504000
 11.09590000	11.71840000	11.70400000
 11.82950000	12.49060000	16.75190000
 11.22600000	12.44220000	21.58960000
 11.49980000	11.79280000	26.86370000
 10.97850000	11.73220000	31.98600000
 11.33090000	17.11060000	1.14219000
 11.66280000	17.02750000	6.20091000
 11.41600000	17.54520000	11.10870000
 11.28900000	17.49460000	16.96520000
 11.66530000	17.55420000	22.07510000
 10.86950000	17.13620000	26.84630000
 11.30530000	17.86230000	31.87060000
 11.19370000	22.88970000	1.27471000
 11.05190000	22.99890000	6.46219000
 10.25990000	22.26020000	11.58890000
 10.69650000	23.32060000	16.53140000
 11.00820000	22.64720000	21.59160000
 10.86730000	23.08630000	27.39440000
 10.50670000	22.92170000	32.35110000
 10.70350000	28.28490000	1.50365000
 10.90630000	28.52340000	6.69145000
 11.23570000	28.42840000	11.54510000
 11.10160000	28.73580000	16.21950000
 10.88470000	29.20910000	21.75020000
 10.97030000	28.26320000	27.09930000
 10.99510000	28.32300000	32.19030000
 11.30680000	33.55700000	1.31923000
 10.93250000	34.10070000	6.84228000
 10.73390000	33.92180000	11.67300000
 11.08140000	34.06210000	16.74470000
 11.14230000	34.47170000	21.82400000
 10.93010000	33.50130000	27.37730000
 10.98650000	34.03400000	31.88470000
 14.57130000	0.81178700	1.80704000
 14.74060000	0.43640100	7.03980000
 13.96480000	1.02615000	11.13720000
 14.98840000	1.23383000	17.00720000
 14.23560000	0.96419600	21.70970000
 14.21410000	1.07504000	27.35830000
 14.97080000	0.35470700	32.38820000
 14.21370000	6.40063000	1.20539000
 14.26550000	6.34877000	6.42560000
 14.56350000	6.20173000	11.56550000
 14.02880000	6.48072000	16.84700000
 14.52590000	6.27313000	21.53560000
 14.21010000	6.72931000	26.88880000
 13.70070000	6.14834000	32.10920000
 13.98660000	10.40160000	4.28661000
 15.73780000	14.54130000	6.40462000
 14.32130000	12.20460000	11.35870000
 15.10570000	11.68470000	16.09830000
 14.77560000	12.10670000	22.06650000
 14.27590000	12.42140000	26.71990000
 14.16850000	11.66650000	32.20090000
 14.45650000	15.46060000	34.92090000
 14.46770000	17.36350000	6.65649000
 13.84070000	17.45240000	11.77390000
 14.51390000	17.52850000	16.85600000
 14.54770000	17.80680000	21.95310000
 14.35720000	17.37730000	26.93340000
 14.02740000	17.13870000	31.96120000
 14.34930000	22.84220000	1.19967000
 14.18230000	22.53460000	6.60645000
 13.57980000	23.14760000	11.76230000
 14.04150000	23.14500000	17.28290000
 14.32860000	23.10730000	22.05450000
 13.77650000	23.12860000	26.61910000
 13.73660000	23.48420000	32.19050000
 14.48920000	28.33130000	1.29674000
 14.25020000	28.82660000	6.47907000
 14.08020000	28.50590000	11.44330000
 13.97800000	28.65020000	16.46210000
 14.15070000	28.94640000	22.09620000
 13.94710000	28.81830000	27.18960000
 14.26300000	28.47320000	32.35820000
 14.42350000	34.18190000	0.72345900
 13.73340000	33.54860000	6.39470000
 14.08080000	34.42820000	11.08480000
 14.12320000	34.03130000	16.69840000
 13.98360000	33.89300000	21.97660000
 13.64900000	33.80980000	26.80080000
 14.12760000	33.53290000	32.24450000
 17.66300000	0.55704600	1.41383000
 17.44090000	1.01034000	6.26788000
 17.81050000	0.96245800	11.28010000
 17.73760000	0.97141200	16.77650000
 17.57500000	0.80051300	21.89730000
 17.13230000	0.55806300	26.68350000
 17.83500000	1.51235000	32.36690000
 17.37960000	6.30713000	1.43800000
 17.12380000	6.43623000	6.15175000
 17.30380000	6.23727000	11.41130000
 18.41820000	6.15160000	16.70960000
 17.42750000	6.35454000	21.74090000
 17.18710000	7.36117000	26.96390000
 17.53000000	6.29524000	32.03670000
 17.66870000	11.91410000	1.71804000
 17.34990000	12.55670000	6.70466000
 17.29980000	12.81370000	11.68890000
 17.55690000	12.03610000	17.23060000
 17.66140000	11.65960000	22.19700000
 17.93690000	12.33530000	27.08240000
 17.03770000	11.98570000	32.38070000
 15.38170000	18.50150000	3.96559000
 17.48060000	17.93160000	5.99624000
 16.76630000	17.28600000	11.55990000
 17.29690000	17.73900000	16.63330000
 17.41780000	17.54110000	21.86740000
 17.69960000	17.09980000	26.80200000
 17.50820000	17.31820000	32.36040000
 17.19060000	22.89800000	1.61598000
 17.58870000	22.71540000	6.74000000
 16.95050000	23.08330000	11.66330000
 17.25510000	23.05430000	16.91900000
 17.57970000	22.97880000	22.29060000
 16.57120000	22.97570000	27.05740000
 16.77550000	22.96680000	32.62370000
 17.36860000	28.75490000	1.34995000
 17.90810000	28.13830000	6.28753000
 17.08330000	28.26010000	11.37740000
 17.14400000	28.49560000	16.54760000
 17.24050000	27.88050000	21.82460000
 17.01530000	28.39140000	26.98070000
 17.72880000	28.62910000	31.85620000
 17.37040000	33.96210000	0.92097700
 16.97040000	33.76900000	6.21694000
 17.00100000	33.95030000	11.48910000
 17.15010000	34.34530000	16.75200000
 17.91760000	34.22640000	22.72200000
 16.87730000	33.92640000	26.92450000
 17.29080000	33.87980000	31.91030000
 21.05580000	1.62055000	1.41176000
 20.64200000	0.86909200	6.46844000
 21.19400000	0.66749600	11.47760000
 21.32300000	0.79595600	16.15190000
 20.51980000	1.23523000	22.26180000
 21.45810000	0.70781100	27.00410000
 20.59210000	0.99660900	32.19050000
 20.49200000	6.58578000	1.66382000
 20.84730000	6.49133000	6.45111000
 20.43170000	6.50105000	11.84040000
 21.21410000	6.00363000	16.44470000
 21.31820000	6.05105000	21.60480000
 20.83270000	6.40186000	27.31200000
 20.41520000	6.86448000	32.39160000
 1.72922000	11.99630000	1.06289000
 20.54290000	12.00970000	5.95947000
 20.45420000	11.72150000	11.71620000
 20.52650000	12.34250000	16.95020000
 20.71030000	11.94710000	22.39090000
 20.98090000	12.64790000	26.73120000
 20.40580000	11.44620000	32.10880000
 20.92700000	17.26650000	1.18615000
 20.52620000	17.78330000	6.26078000
 20.26750000	17.55300000	11.19720000
 20.54270000	17.27550000	16.79180000
 20.70350000	17.74090000	22.16890000
 21.07860000	17.07620000	26.45990000
 20.44170000	17.38310000	31.96880000
 20.14560000	23.17080000	1.00097000
 20.58070000	22.83830000	6.23540000
 20.18620000	22.96000000	11.79160000
 20.08740000	22.88730000	16.93580000
 20.39950000	22.79780000	22.21160000
 19.85140000	22.48090000	26.86080000
 20.22370000	22.49560000	31.90600000
 20.24350000	28.22300000	1.05487000
 20.47440000	28.37770000	6.16477000
 20.09670000	28.20320000	11.31290000
 20.01610000	28.51890000	16.44070000
 20.33970000	28.37570000	22.05430000
 20.22230000	28.44140000	27.28260000
 20.54700000	28.40300000	32.12360000
 20.62030000	34.15890000	1.66750000
 19.15050000	31.39610000	6.65423000
 20.43520000	33.95500000	12.08480000
 20.59190000	34.10320000	16.73950000
 20.35520000	33.97150000	21.84790000
 21.35070000	33.65480000	26.88780000
 20.86250000	33.48500000	32.24310000
 0.63137300	4.01105000	0.91308700
 22.16210000	3.16316000	6.12602000
 0.19392600	4.13293000	11.58350000
 0.69566500	3.44925000	16.32610000
 21.67130000	3.51582000	20.92700000
 0.17168600	3.72612000	26.73720000
 0.25029200	4.66193000	32.00910000
 0.05483859	9.35279000	1.16422000
 21.94570000	9.19960000	5.90880000
 22.15910000	9.04655000	12.05650000
 21.16530000	8.72626000	16.50270000
 22.02383741	9.20545000	21.67220000
 0.10532600	8.97937000	26.66650000
 21.87260000	9.22009000	31.95630000
 0.18186800	14.52960000	1.14624000
 21.95200000	14.42860000	6.60807000
 0.31143859	14.42270000	11.44050000
 22.17415171	15.35100000	16.77660000
 0.20063859	14.23910000	21.70140000
 0.66367100	14.70460000	26.76490000
 0.08504790	14.23900000	32.18220000
 22.00050000	20.97530000	1.23610000
 22.00230000	20.18400000	6.49888000
 21.80480000	20.45710000	11.43410000
 21.96460341	20.07410000	16.62560000
 0.39388900	19.83780000	21.85520000
 0.22253859	20.41070000	26.92790000
 0.15958600	20.09830000	32.59110000
 22.09530000	25.68980000	1.19664000
 0.08563859	25.32730000	6.38868000
 21.92740000	25.61390000	11.62360000
 21.79350000	26.10690000	16.57230000
 21.95920000	25.15910000	21.74770000
 21.83370000	25.82450000	26.69410000
 0.42659100	25.39800000	31.93420000
 21.63440000	30.92640000	1.53663000
 0.11533600	31.04320000	6.62736000
 20.99670000	31.09760000	11.79120000
 22.05820000	31.22900000	16.94500000
 21.87361541	31.11070000	22.17140000
 22.06361841	30.88760000	26.74000000
 21.59540000	30.93560000	32.46000000
 0.14188800	36.80740000	1.62629000
 20.40540000	33.92740000	6.65362000
 0.04034100	36.57050000	11.70440000
 0.33753859	36.88880000	17.05300000
 22.08386741	36.61560000	21.52090000
 0.18813100	36.45190000	26.87850000
 0.18441700	36.56210000	32.10670000
 3.43240000	1.06276000	3.43846000
 3.60920000	3.10200000	5.89762000
 2.88016000	3.53411000	11.16240000
 3.59007000	4.42873000	16.59440000
 2.56912000	3.74265000	21.72100000
 3.39448000	3.08428000	27.03260000
 3.21740000	3.40491000	32.00890000
 4.93969000	5.59081000	0.91207600
 2.81977000	9.10610000	6.33043000
 3.16553000	9.11436000	11.01210000
 3.15905000	9.64280000	16.72370000
 3.26225000	9.53271000	21.70070000
 3.13463000	8.73783000	26.83970000
 3.64510000	9.29946000	32.47200000
 3.13402000	13.72040000	1.41232000
 2.76332000	14.84760000	6.20894000
 3.26858000	14.41610000	11.58500000
 2.68669000	14.30620000	16.70150000
 3.39297000	14.23230000	21.50100000
 3.51854000	15.03880000	27.10770000
 2.98537000	14.38030000	32.11540000
 3.44920000	20.24980000	1.22098000
 2.60324000	19.95530000	6.57179000
 2.46406000	20.01950000	11.43590000
 3.16643000	20.11670000	16.99840000
 3.53955000	19.57800000	22.11680000
 3.20616000	19.88170000	27.15190000
 3.30523000	20.20380000	32.38730000
 3.19031000	25.49240000	1.49843000
 3.25969000	25.87740000	6.74941000
 3.33325000	25.68650000	11.68350000
 3.40733000	25.70610000	16.62550000
 2.78894000	25.36200000	21.79300000
 3.31410000	25.81830000	26.76950000
 2.98102000	25.63870000	32.10710000
 2.58865000	30.90040000	1.71729000
 2.90874000	30.57100000	6.75520000
 3.46336000	30.29620000	11.69510000
 3.09922000	30.73790000	16.88560000
 3.47472000	31.18140000	21.57220000
 3.26826000	31.59910000	27.19270000
 2.78562000	31.03900000	32.36010000
 3.00758000	36.62750000	1.83798000
 0.08578110	36.21950000	6.84609000
 3.26520000	36.26890000	11.74460000
 3.40767000	36.73650000	16.47680000
 3.18580000	36.31340000	21.66450000
 3.37319000	36.74800000	26.51850000
 4.94423000	0.43065400	31.95110000
 6.43855000	2.62775000	1.55432000
 6.40307000	3.72759000	6.78471000
 6.22921000	3.12159000	12.01700000
 6.68734000	4.46072000	16.62980000
 6.13684000	3.53876000	21.36960000
 6.42976000	3.86572000	26.12780000
 6.15710000	3.18373000	31.75800000
 6.04099000	8.50928000	1.40644000
 5.57359000	8.79782000	6.21866000
 6.03138000	8.60576000	11.48460000
 6.53180000	9.27932000	16.43280000
 7.08438000	8.87022000	21.21830000
 6.24756000	9.47422000	27.61930000
 6.61245000	8.78275000	32.10040000
 6.49231000	14.03940000	1.22426000
 7.32278000	15.00850000	6.53719000
 6.95857000	14.05410000	11.29050000
 6.82824000	14.49070000	16.68570000
 6.38149000	14.54520000	21.81100000
 6.53332000	14.58170000	27.16710000
 6.33860000	13.93570000	32.61670000
 6.20234000	19.56430000	1.65553000
 6.22055000	20.11910000	7.17915000
 5.26661000	20.08760000	12.01070000
 6.16710000	19.94440000	16.85850000
 6.38732000	20.40790000	22.19920000
 6.60008000	20.48230000	27.53520000
 6.06244000	20.17960000	32.62890000
 6.05665000	25.79500000	1.27794000
 7.03915000	25.45800000	7.10158000
 6.80188000	25.25550000	11.35700000
 6.45875000	25.85280000	16.75870000
 6.32522000	25.59800000	21.84620000
 6.02190000	25.81670000	27.05080000
 6.15147000	25.61800000	32.09360000
 5.79956000	31.06080000	1.43008000
 6.19664000	31.15430000	6.39761000
 6.41739000	31.21180000	11.19970000
 6.33949000	30.90190000	16.66000000
 6.54650000	31.09770000	21.74420000
 6.33413000	30.81550000	27.19550000
 6.57321000	31.42080000	32.52580000
 6.42276000	36.16360000	1.93769000
 6.21842000	36.30170000	6.91232000
 6.66690000	36.40330000	11.52350000
 6.49876000	36.11140000	16.59440000
 6.46744000	36.86700000	21.59250000
 6.77879000	36.93290000	26.74010000
 6.47756000	36.57180000	32.15200000
 9.83740000	3.19574000	0.81198800
 9.86942000	3.82556000	6.61740000
 9.40746000	3.58626000	11.41970000
 9.60400000	4.15928000	16.45340000
 9.73715000	4.32591000	21.82320000
 9.67103000	3.69769000	26.30590000
 9.72497000	3.13965000	31.25020000
 11.22540000	11.51280000	1.15309000
 9.66920000	8.71283000	6.14884000
 9.69635000	8.94208000	11.51680000
 9.76853000	9.39636000	16.76990000
 9.97277000	9.44520000	21.47950000
 9.31563000	9.25675000	26.73380000
 9.80116000	8.70398000	32.00950000
 9.43157000	13.98880000	0.75216300
 9.81611000	13.83120000	6.01020000
 10.03490000	14.88400000	11.26750000
 10.13050000	14.89030000	16.59000000
 9.31968000	14.93110000	21.79740000
 9.62208000	14.68060000	27.03000000
 9.03251000	14.21320000	31.91920000
 9.68037000	20.57030000	1.42744000
 9.84672000	20.04710000	6.37982000
 8.67564000	19.69580000	12.29030000
 9.36999000	20.14160000	16.41330000
 9.25992000	20.25080000	21.55460000
 9.47718000	20.12100000	26.45590000
 9.53702000	20.02710000	32.05110000
 9.10058000	25.71190000	2.33069000
 9.63568000	26.04550000	6.79809000
 9.83379000	25.33860000	10.78390000
 9.42928000	26.23880000	16.73340000
 9.34086000	25.64280000	21.97410000
 9.08369000	25.68210000	27.05480000
 9.14154000	26.22130000	32.51420000
 10.11820000	30.98730000	0.92751300
 9.46712000	31.36700000	6.31819000
 9.43652000	31.29010000	11.42030000
 9.78176000	31.34370000	16.68030000
 9.40127000	31.85540000	22.09010000
 9.17281000	31.24100000	26.50690000
 9.46287000	31.14970000	32.50710000
 9.66672000	36.37560000	1.78704000
 9.88082000	37.01420000	6.99532000
 9.33043000	36.76150000	11.04960000
 9.56518000	36.56270000	16.86230000
 9.29856000	36.70120000	22.04810000
 9.48171000	36.32160000	27.19500000
 9.30942000	36.13450000	32.31440000
 12.93840000	3.30415000	0.98405000
 13.23860000	3.79829000	6.21090000
 12.78520000	3.67229000	11.74580000
 13.25770000	3.43884000	16.63640000
 12.82930000	3.46244000	21.66580000
 12.87150000	3.91237000	26.16420000
 12.50250000	2.99420000	31.92140000
 13.00430000	9.04028000	1.30550000
 12.59610000	8.80846000	6.59441000
 12.83860000	8.90085000	11.69410000
 13.12490000	9.42936000	16.50040000
 13.31240000	9.48358000	21.66440000
 12.91730000	9.25768000	27.01330000
 12.78010000	8.99421000	32.22460000
 12.91630000	14.38130000	1.81792000
 12.99870000	14.04870000	6.36819000
 12.67950000	14.70950000	11.69190000
 13.37690000	14.88980000	16.50950000
 13.16960000	14.48600000	21.94410000
 12.34610000	14.55470000	26.95480000
 12.59740000	14.63450000	32.57210000
 12.37880000	19.95210000	0.70632000
 12.78520000	19.87710000	6.36767000
 12.66150000	20.23910000	11.93130000
 12.44060000	20.31130000	16.67090000
 12.53500000	20.39840000	21.75900000
 12.50020000	20.25660000	26.99480000
 12.67620000	20.97340000	32.18210000
 12.57100000	26.01000000	1.26284000
 12.82000000	26.26210000	6.59418000
 12.44480000	25.57200000	11.64910000
 12.57000000	26.02370000	16.27140000
 12.09910000	26.05900000	21.74790000
 12.11030000	25.57880000	26.74730000
 12.13870000	25.66440000	32.08430000
 12.63010000	30.71010000	1.57817000
 12.33020000	31.19740000	6.45587000
 12.45880000	31.40680000	11.44160000
 12.50250000	31.41830000	16.65940000
 12.62010000	31.74590000	21.39920000
 12.14770000	30.97100000	26.88430000
 12.55390000	30.60200000	32.14020000
 13.60820000	36.74140000	2.16773000
 12.70750000	36.57250000	6.20979000
 12.28730000	36.39690000	11.54380000
 12.81120000	36.86630000	16.87540000
 12.26730000	37.28600000	22.00650000
 12.53470000	36.88560000	26.71220000
 13.33930000	36.34410000	32.06880000
 16.17230000	3.70685000	1.20114000
 16.00810000	3.45533000	6.81454000
 15.97300000	3.03810000	11.54890000
 16.16080000	4.58053000	16.28710000
 15.80110000	3.46126000	22.06400000
 16.07440000	3.67159000	26.60060000
 16.07440000	4.00951000	31.63900000
 16.00760000	9.51552000	1.83270000
 15.52710000	9.36184000	6.34366000
 15.91580000	8.83640000	11.25060000
 16.20710000	8.44123000	15.63470000
 16.22040000	9.19264000	22.36230000
 16.18640000	9.96981000	27.93760000
 15.85130000	8.63936000	32.50490000
 17.84730000	15.51150000	34.76160000
 16.56950000	15.56960000	4.33671000
 15.57590000	14.87700000	11.67490000
 16.39500000	15.05690000	17.09660000
 15.89330000	14.90870000	22.33160000
 15.93680000	14.68800000	27.24020000
 16.13900000	14.73380000	32.06900000
 15.89810000	20.08020000	1.69511000
 15.87910000	20.23000000	6.47025000
 15.40740000	20.16880000	11.57320000
 15.48270000	20.15760000	16.83680000
 15.97910000	20.25230000	22.08090000
 15.83000000	20.31840000	27.01360000
 15.26530000	19.88780000	32.54150000
 15.33710000	25.69720000	1.87246000
 15.83530000	25.81930000	6.54702000
 15.58840000	25.55880000	11.31430000
 15.49620000	25.85750000	16.51090000
 15.11580000	25.85540000	21.88340000
 15.26240000	25.78620000	26.64130000
 15.73740000	25.66120000	31.81590000
 17.17630000	32.14360000	34.49760000
 15.61400000	31.38940000	1.13277000
 15.71270000	31.27890000	11.66620000
 15.43130000	31.19290000	16.85320000
 16.43920000	31.07430000	22.14700000
 15.53070000	31.29900000	27.03860000
 15.39190000	30.79480000	31.91670000
 15.84080000	36.46320000	0.59413000
 15.37740000	36.30380000	6.28725000
 16.32960000	37.00710000	11.66350000
 15.51250000	36.62320000	16.40910000
 15.64370000	36.72450000	21.89960000
 15.07230000	36.11980000	27.49420000
 16.40400000	36.45220000	31.87470000
 19.31390000	3.80173000	1.13964000
 18.99530000	3.70435000	6.50877000
 19.44420000	3.43889000	11.44340000
 19.73640000	3.48296000	16.45010000
 18.52340000	3.22145000	21.39840000
 19.34120000	3.45212000	27.02050000
 19.28720000	4.07188000	32.01780000
 18.66730000	9.17061000	1.33415000
 18.49620000	9.46968000	6.39999000
 19.15950000	9.17966000	11.66920000
 18.60160000	9.48589000	16.62270000
 19.17870000	9.07805000	21.85510000
 19.12230000	9.18282000	27.31810000
 18.63110000	9.01576000	32.75580000
 19.30330000	14.77370000	1.27800000
 18.91370000	15.07140000	6.63202000
 18.95950000	15.20190000	11.49490000
 19.37260000	14.72970000	16.72530000
 19.06870000	15.09170000	22.09490000
 19.43180000	14.60560000	26.97740000
 19.36620000	15.00820000	32.37410000
 18.51400000	20.31820000	0.58048100
 18.83060000	20.23190000	6.33683000
 18.67540000	20.05480000	12.17030000
 18.75210000	20.27620000	16.71030000
 18.96520000	20.25950000	21.85730000
 19.32410000	19.88840000	27.02130000
 18.44380000	19.99090000	32.09220000
 18.34930000	25.86000000	1.09627000
 19.16610000	25.55280000	6.54536000
 19.00020000	25.72260000	11.75160000
 18.59370000	25.78920000	17.09520000
 19.03660000	25.55950000	21.81840000
 18.75780000	25.67010000	27.26210000
 18.72250000	25.48570000	32.10060000
 18.86130000	30.97880000	0.83970800
 15.70990000	31.31820000	6.36894000
 18.08100000	31.16920000	11.51060000
 18.52500000	31.11730000	16.85110000
 19.25260000	31.19030000	21.90200000
 19.10620000	31.50330000	27.11180000
 18.49690000	31.37740000	32.22090000
 19.44250000	36.69320000	1.10888000
 18.49790000	36.27870000	6.37800000
 19.10510000	36.69550000	11.30760000
 18.86560000	36.85730000	16.74870000
 19.31070000	36.85810000	21.40910000
 19.51060000	37.36400000	26.69050000
 19.46390000	36.67750000	32.04680000
 1.98344000	3.79055000	3.35674000
 1.07536000	4.84148000	8.58939000
 1.69334000	5.20118000	14.20240000
 1.08216000	5.01717000	18.67140000
 1.18013000	4.39075000	23.92560000
 1.65131000	4.42423000	29.32190000
 2.29557000	4.87354000	34.59000000
 1.54217000	9.81926000	3.52865000
 0.87613700	10.15790000	8.58804000
 1.58499000	10.05470000	14.11490000
 1.31876000	9.81526000	19.41200000
 1.95592000	10.29200000	24.23680000
 1.57708000	9.58152000	29.80920000
 1.55778000	10.18260000	34.58250000
 0.37869700	16.09380000	3.98782000
 1.55566000	15.76630000	9.43389000
 2.05169000	15.81950000	14.27850000
 2.14708000	15.23140000	19.28890000
 2.18159000	15.60690000	24.31610000
 2.14175000	15.77070000	29.70210000
 1.82647000	14.90930000	34.51740000
 1.60450000	20.83140000	3.74833000
 1.58774000	21.23750000	8.99557000
 1.26453000	21.62360000	14.04500000
 1.81496000	20.89230000	18.95380000
 1.97387000	21.18060000	24.35280000
 1.16734000	20.71530000	29.75120000
 1.69438000	21.49170000	34.61410000
 1.98527000	26.51070000	4.33695000
 1.27206000	26.03440000	8.96281000
 1.27228000	26.44910000	13.93560000
 1.31816000	26.40580000	19.13370000
 1.26128000	26.83330000	24.22250000
 1.16634000	26.47700000	29.12600000
 1.71375000	26.13400000	34.96530000
 1.57581000	31.96080000	4.00208000
 1.31949000	31.37910000	9.91909000
 1.36796000	30.89340000	14.23110000
 1.68718000	31.88980000	19.34820000
 1.63509000	32.02260000	24.68770000
 0.97067400	31.67610000	29.48310000
 1.63059000	32.20100000	34.72420000
 1.77542000	37.68580000	4.37760000
 1.49505000	37.50770000	8.98450000
 1.72330000	37.76830000	13.93840000
 2.07776000	37.68250000	19.20420000
 1.24753000	37.24470000	24.44240000
 1.54647000	37.19190000	29.71500000
 1.72146000	37.34730000	34.93680000
 5.13970000	4.32518000	3.56566000
 3.90985000	4.91559000	8.71452000
 4.62030000	4.41262000	14.02140000
 4.55240000	5.05823000	19.42680000
 4.50427000	4.65586000	23.73790000
 5.02234000	4.23929000	29.48420000
 5.70437000	4.27704000	34.51410000
 7.62751000	9.57451000	3.77868000
 4.43826000	10.70170000	8.17679000
 5.25975000	10.37560000	13.49550000
 5.24039000	9.70026000	19.12440000
 4.95717000	10.01420000	24.12940000
 4.53890000	10.24050000	29.61370000
 5.38719000	9.58495000	34.82790000
 3.15178000	12.24540000	3.77035000
 4.67369000	15.92770000	8.17438000
 5.02648000	15.50120000	14.02510000
 4.85867000	15.42140000	19.39460000
 5.22377000	15.54540000	24.56150000
 5.41686000	15.64650000	29.83630000
 4.73757000	14.85040000	34.99850000
 4.65718000	20.96780000	3.91985000
 4.71324000	21.65310000	9.27740000
 4.07373000	21.15010000	14.38550000
 4.44313000	21.43300000	19.41820000
 4.90470000	20.92540000	24.47700000
 4.00570000	21.10010000	29.79090000
 4.87838000	21.05520000	35.18110000
 4.34669000	26.66410000	3.98562000
 5.12841000	25.97560000	9.33619000
 4.94775000	26.17420000	13.88910000
 4.51589000	26.31000000	19.46530000
 4.54135000	26.73300000	24.30720000
 4.22802000	26.66110000	29.74770000
 4.37162000	27.00050000	34.46740000
 4.26110000	32.10820000	3.95487000
 4.24498000	32.13640000	9.24516000
 4.37479000	31.72730000	14.17320000
 4.69650000	32.24200000	19.09290000
 4.98320000	31.71170000	24.78440000
 4.97759000	32.15080000	29.80310000
 4.47989000	31.92860000	34.64090000
 5.16365000	37.00940000	3.88456000
 4.49065000	37.41330000	9.26331000
 4.79518000	37.17710000	14.20510000
 5.03753000	37.62990000	19.11390000
 4.42407000	38.23040000	23.85690000
 4.90829000	37.51500000	29.11390000
 4.96480000	37.03260000	34.73310000
 8.56922000	4.53592000	3.87858000
 8.12682000	4.24188000	8.93463000
 7.77752000	5.01720000	13.92350000
 7.80445000	4.59614000	18.96470000
 7.65662000	4.74139000	23.95660000
 8.27263000	4.27316000	29.18320000
 8.40629000	3.56314000	34.12130000
 12.01600000	12.93160000	4.12961000
 7.47837000	10.00740000	9.25542000
 8.35080000	9.83469000	14.22180000
 8.12684000	10.33370000	19.29360000
 8.08214000	9.84139000	24.29290000
 8.06786000	10.24790000	30.07370000
 7.98823000	9.45347000	34.58580000
 7.97386000	14.92610000	3.64615000
 7.63946000	15.77430000	9.03938000
 8.07982000	15.69800000	14.17820000
 7.98905000	15.53850000	19.34320000
 7.88568000	15.46660000	24.76840000
 7.89628000	15.59360000	29.42290000
 7.58518000	15.38890000	34.56300000
 7.79010000	21.28830000	3.76562000
 7.76559000	21.22130000	9.09501000
 7.37719000	21.45130000	14.35430000
 7.63894000	21.25700000	19.05960000
 7.96359000	21.56170000	24.63160000
 8.42865000	21.39000000	29.44360000
 7.80605000	21.11880000	34.67850000
 7.20048000	26.70460000	4.34908000
 7.83737000	27.29560000	8.82940000
 7.64380000	27.35820000	14.56800000
 7.55011000	26.85760000	19.27790000
 7.41063000	26.55290000	24.26400000
 7.73089000	26.58820000	29.67330000
 7.58196000	26.65440000	34.97660000
 7.90398000	31.68790000	3.47335000
 7.69021000	32.36140000	8.84028000
 7.60803000	32.05080000	13.98190000
 7.53975000	31.82040000	19.14580000
 7.43002000	32.38390000	24.38260000
 7.97149000	32.19410000	29.74300000
 7.96252000	31.74110000	35.07310000
 7.70726000	37.33380000	4.54523000
 7.28992000	37.91440000	9.21821000
 7.59068000	37.38880000	14.24280000
 7.76654000	37.48360000	19.31150000
 7.53560000	37.86220000	23.81350000
 8.04176000	37.21910000	29.49810000