Mg
  1.000000
16.35254697	0.00000000	0.00000000
0.00000000	28.32344343	0.00000000
0.00000000	0.00000000	79.51246759
Mg 
1446 
car
 1.38389000	0.51498200	21.46650000
 1.35376000	0.77998000	26.73380000
 1.39671000	-0.15680800	31.86550000
 1.23041000	0.67242800	37.05300000
 1.63497000	0.30891400	63.61080000
 1.87349000	0.49287800	69.37530000
 1.91964000	0.59127700	74.01820000
 1.45450000	6.09130000	-0.26310500
 1.59750000	6.57080000	21.26840000
 1.08205000	5.79850000	26.59790000
 1.55878000	6.25678000	31.66540000
 1.05140000	5.92440000	36.99280000
 1.22218000	6.15275000	63.82260000
 1.58155000	6.04313000	69.20710000
 1.33513000	5.97200000	74.40160000
 0.92071500	12.05700000	-0.09362710
 1.13741000	12.08280000	20.89640000
 1.02857000	11.69440000	26.73400000
 1.18748000	11.87470000	31.97990000
 1.31028000	12.11440000	37.71320000
 1.16026000	11.65520000	64.15120000
 1.45480000	11.79950000	68.69520000
 1.12297000	12.19120000	74.26820000
 1.43333000	17.51500000	-0.14867600
 1.11599000	17.41200000	21.32510000
 1.27516000	17.49960000	26.86470000
 1.39651000	17.47870000	32.05440000
 1.37576000	17.56610000	36.86280000
 1.11946000	17.58380000	63.60880000
 1.05724000	17.72250000	69.26460000
 1.51032000	17.65790000	73.96690000
 1.67195000	23.19130000	-0.23040600
 1.71442000	23.17090000	21.74200000
 1.35603000	23.24370000	26.70470000
 1.25550000	23.39610000	32.02090000
 1.62754000	23.09890000	37.29110000
 1.24961000	23.30350000	63.91770000
 1.10953000	22.92770000	69.45430000
 1.28034000	23.16180000	74.26000000
 4.43535000	0.93669300	21.57180000
 4.19974000	0.52427600	27.27510000
 4.48711000	0.62882400	31.90750000
 4.71740000	0.55797800	37.68740000
 4.88913000	-0.08021860	63.94960000
 5.11268000	1.04333000	68.80100000
 4.98610000	0.42149700	74.06690000
 4.53776000	6.00578000	-0.15416000
 4.63807000	6.45349000	21.34000000
 4.82284000	6.07914000	26.64430000
 4.57836000	6.29868000	32.06730000
 4.45417000	6.49178000	37.01720000
 4.97238000	6.39098000	63.65770000
 5.01735000	6.18450000	68.80670000
 4.88662000	6.21676000	73.94230000
 4.37636000	12.05880000	21.63530000
 4.49012000	11.85870000	26.30320000
 4.17048000	11.96980000	31.54470000
 4.72297000	12.06220000	37.28160000
 4.54591000	11.86710000	63.52160000
 4.20677000	11.70790000	69.10390000
 4.60109000	11.60210000	74.41290000
 4.48918000	17.30140000	-0.26829100
 4.44599000	17.17210000	21.06640000
 4.47582000	17.38530000	26.71070000
 4.83206000	17.38670000	32.08310000
 4.83923000	17.05680000	37.02160000
 4.56372000	17.50120000	63.86800000
 4.64747000	17.60560000	69.47230000
 4.68859000	17.81620000	74.50710000
 5.01173000	23.18590000	21.52760000
 4.52208000	23.55830000	26.63460000
 4.63271000	23.60460000	31.78090000
 4.80163000	22.87100000	37.41460000
 4.45028000	23.04060000	63.58130000
 4.45979000	22.99670000	68.85640000
 4.52367000	23.01240000	74.42790000
 7.67339000	0.69335900	21.53070000
 7.69229000	0.85934000	26.71670000
 7.74166000	1.36466000	31.74720000
 7.81651000	0.74007400	37.20370000
 7.73466000	0.44884900	63.71670000
 8.09697000	1.14088000	68.95160000
 8.09606000	0.52390000	74.40110000
 7.92296000	6.78669000	-0.00322678
 8.14203000	6.36305000	21.48420000
 7.87881000	5.70512000	26.80000000
 7.71793000	6.26351000	32.15520000
 7.61042000	6.21718000	36.82670000
 8.13588000	6.06952000	63.61760000
 8.12146000	6.40667000	68.92340000
 8.10484000	6.33303000	73.95240000
 8.16928000	12.01690000	-0.26422500
 8.04104000	12.31310000	21.00520000
 7.91233000	11.98360000	26.94300000
 8.42649000	11.86920000	32.08030000
 8.12131000	11.90240000	37.26520000
 8.27870000	11.79040000	63.65920000
 7.92452000	11.97650000	68.92540000
 7.83460000	11.47370000	74.35940000
 7.37644000	17.47140000	21.53540000
 7.87468000	17.28380000	26.44460000
 7.65905000	17.63390000	31.94850000
 8.20759000	17.49110000	37.41140000
 7.67297000	17.27010000	63.77710000
 7.75296000	17.85870000	68.81740000
 7.60028000	17.50940000	74.34740000
 8.19853000	23.57120000	21.28500000
 7.88822000	23.58270000	26.54340000
 7.80451000	22.83750000	31.72440000
 7.66048000	22.67410000	36.87250000
 8.36960000	23.36520000	63.80130000
 7.56983000	23.24610000	68.98570000
 7.64868000	23.49460000	74.39550000
 10.63760000	0.85451500	21.24700000
 11.16850000	0.67739700	26.42770000
 10.82440000	0.36702200	32.17700000
 10.63720000	0.09252330	37.01860000
 11.30730000	0.60676100	63.70270000
 11.52660000	0.44069200	69.28800000
 11.43950000	0.40630100	74.28300000
 11.23790000	6.36716000	-0.07888360
 11.65450000	6.24665000	21.31210000
 11.11150000	6.02504000	26.93210000
 11.82270000	5.78649000	31.59460000
 11.33960000	5.82107000	37.70880000
 11.36970000	5.97771000	63.53250000
 11.18890000	6.28264000	68.88310000
 11.03470000	6.44080000	74.69590000
 11.19060000	11.79990000	21.47650000
 10.69850000	11.33360000	26.34060000
 11.71640000	11.64250000	31.47570000
 11.16960000	11.87490000	37.24170000
 11.11120000	11.55130000	63.46720000
 10.73910000	12.36700000	68.80360000
 11.53000000	12.36590000	74.12620000
 10.60150000	17.72580000	21.24770000
 11.00620000	17.35290000	26.56450000
 11.08640000	17.87830000	31.66040000
 11.59470000	17.24940000	37.16260000
 10.86310000	17.64660000	63.87470000
 11.09300000	17.55850000	68.87120000
 11.11700000	17.77750000	73.95240000
 11.22970000	23.39680000	-0.04608700
 11.81970000	23.14960000	20.83480000
 11.41780000	23.12930000	26.78820000
 10.87450000	23.00770000	32.13060000
 11.09750000	22.63500000	37.42260000
 11.60250000	22.78240000	63.60330000
 11.36990000	23.40030000	69.06910000
 10.77960000	23.20340000	74.27130000
 14.36690000	0.99886300	-0.10610600
 14.18890000	0.53860300	21.52030000
 14.28490000	0.62296400	26.66440000
 13.98450000	0.04528670	31.80290000
 14.33580000	0.30776400	37.61360000
 14.91010000	0.44354300	63.79410000
 14.76320000	0.37259200	69.50740000
 14.73120000	-0.00476686	74.89210000
 14.96620000	6.32385000	21.69890000
 14.29380000	6.27652000	26.49420000
 15.01650000	6.06168000	32.16680000
 14.35470000	6.19373000	36.96820000
 14.53530000	5.98653000	63.81100000
 14.58810000	6.13487000	69.29880000
 14.50120000	6.42731000	74.23950000
 14.16210000	11.82420000	20.91680000
 14.07030000	11.73640000	26.69360000
 14.88590000	12.31510000	32.53120000
 14.37410000	11.62930000	37.17460000
 14.22800000	11.68970000	63.37500000
 14.64340000	11.78510000	68.98550000
 14.30220000	11.89490000	74.50210000
 14.38230000	17.99990000	-0.18874800
 14.03120000	17.29060000	21.13660000
 14.50450000	17.30900000	27.12240000
 14.50460000	17.85100000	32.12280000
 14.83210000	17.56050000	36.96150000
 14.41440000	17.27040000	63.87450000
 14.39940000	17.35980000	69.09760000
 14.36790000	17.59670000	73.99310000
 14.81210000	23.29470000	21.86190000
 14.52100000	23.24410000	26.86240000
 14.22310000	23.36590000	32.14460000
 14.80850000	23.27080000	37.34180000
 14.41000000	23.09080000	63.81090000
 14.17730000	23.26210000	69.38040000
 14.66110000	23.28330000	74.11220000
 16.33563807	3.44367000	-0.31972300
 0.09763670	3.11041000	21.45700000
 16.06580000	3.50385000	26.84320000
 16.09320000	2.63917000	31.87010000
 15.69670000	2.95467000	37.45350000
 0.18216500	2.72790000	64.06280000
 16.29678627	3.37351000	69.20870000
 16.22426297	3.56743000	74.50140000
 15.73580000	8.95913000	-0.54268400
 15.95540000	9.49509000	21.52940000
 16.00420000	8.79704000	26.51530000
 15.49910000	9.22364000	31.96470000
 15.93990000	9.20142000	37.18710000
 16.01500000	8.61285000	64.26770000
 15.90080000	8.70804000	68.91710000
 16.15642897	9.28312000	74.62930000
 15.49490000	14.62760000	21.40330000
 15.90030000	14.94390000	26.55030000
 16.26858417	14.82910000	32.27310000
 16.09650000	15.03930000	37.29030000
 16.09240000	14.50280000	63.74780000
 0.25356900	14.61530000	68.69580000
 16.12280897	14.93980000	74.33480000
 16.10040000	20.53550000	-0.25777300
 0.10122500	20.32620000	21.64560000
 16.14020000	20.12720000	26.92900000
 15.89640000	20.95220000	32.05260000
 0.08252900	20.32940000	37.16670000
 16.13250000	20.63560000	63.27000000
 15.96380000	20.35630000	68.88280000
 15.73000000	20.23960000	74.15810000
 16.02160000	26.25890000	21.50630000
 16.10720000	25.94750000	26.41910000
 16.00070000	25.84920000	32.11020000
 15.77550000	25.94740000	37.42810000
 16.26130127	25.98360000	63.65370000
 16.30408557	26.09600000	69.16660000
 0.16162600	25.92830000	74.65050000
 3.08457000	3.61742000	21.13290000
 3.08529000	3.33113000	26.57730000
 2.52122000	3.40359000	31.86640000
 2.78295000	3.43612000	37.13050000
 3.14126000	3.41009000	63.49070000
 3.48011000	3.57247000	69.08940000
 3.49507000	3.27031000	74.42770000
 3.11376000	9.11560000	20.94570000
 2.72733000	8.33974000	26.54600000
 2.44465000	9.20624000	31.91540000
 3.13042000	9.87295000	36.69710000
 3.19940000	9.03814000	63.70470000
 3.08290000	8.73658000	68.71730000
 3.11356000	9.06552000	74.06630000
 2.78806000	14.56980000	-0.04535300
 2.55247000	14.58230000	21.44710000
 2.88247000	14.64450000	26.65820000
 3.02070000	14.63720000	32.14850000
 2.75787000	14.81300000	37.35820000
 2.88595000	14.66740000	63.84350000
 3.00181000	14.63960000	69.36190000
 3.36594000	14.71210000	74.46360000
 3.10198000	20.54580000	21.55140000
 3.18818000	20.45040000	26.50560000
 2.92935000	21.16950000	31.74860000
 3.35486000	20.04870000	37.47100000
 2.55279000	20.45700000	63.83980000
 2.92586000	20.30530000	68.68880000
 2.84119000	20.45910000	74.38370000
 2.70742000	26.20720000	21.63230000
 2.79373000	26.25130000	26.49640000
 2.83168000	25.82400000	32.18810000
 2.81127000	25.74840000	37.26490000
 3.22335000	25.90370000	64.23450000
 2.98491000	25.43630000	69.30310000
 2.92671000	26.04290000	73.95800000
 6.65497000	3.75342000	-0.01374190
 6.47048000	3.88083000	20.91280000
 5.87637000	3.50918000	26.61050000
 5.72371000	3.45055000	31.85990000
 6.81684000	3.23699000	37.20800000
 6.38272000	3.55202000	63.34930000
 6.31504000	3.70533000	68.55990000
 6.78749000	3.49550000	73.92240000
 5.92157000	9.21294000	-0.20785400
 6.59116000	9.48184000	21.60960000
 5.82383000	9.03379000	26.79970000
 5.89764000	8.89099000	31.59150000
 6.14689000	9.35022000	36.94610000
 6.23674000	9.02042000	63.55230000
 6.24845000	9.13188000	68.78990000
 6.27329000	8.79909000	73.98070000
 5.92448000	14.32710000	21.49440000
 6.10957000	14.74060000	26.82990000
 6.29846000	14.33360000	31.78140000
 6.54906000	14.42320000	37.03620000
 5.65799000	14.62570000	63.63110000
 6.08926000	14.65020000	69.12220000
 6.52992000	14.56610000	74.62960000
 5.97918000	20.35670000	21.39820000
 5.89110000	20.50410000	26.63680000
 6.07578000	19.87770000	31.66610000
 6.46450000	19.92090000	37.22310000
 6.53155000	21.02860000	63.88270000
 6.52606000	20.43300000	69.11270000
 5.95713000	20.53240000	73.98680000
 6.07363000	26.30500000	21.30280000
 6.14318000	26.42950000	27.03330000
 6.26936000	26.69710000	32.10400000
 6.30135000	26.01240000	36.93120000
 6.30937000	25.58190000	63.45100000
 6.90781000	26.41180000	69.00260000
 6.58346000	26.20680000	74.56700000
 9.80046000	3.78734000	21.21770000
 9.67809000	3.28028000	26.79100000
 10.20830000	3.47193000	32.06350000
 9.89605000	3.02025000	37.00930000
 9.82661000	3.31827000	63.69840000
 9.82259000	3.40307000	68.89590000
 10.17030000	3.12265000	74.53790000
 9.59100000	9.40780000	21.47620000
 9.44413000	8.75283000	27.33680000
 9.63753000	9.12817000	31.83530000
 9.60113000	9.20019000	37.62340000
 9.59014000	8.97853000	64.13260000
 9.84503000	8.93455000	68.97390000
 10.33850000	8.95853000	74.39940000
 9.13800000	14.64920000	-0.01812600
 9.25781000	14.70490000	21.50900000
 9.16520000	14.61890000	26.35060000
 9.34852000	15.03920000	32.10880000
 9.78658000	14.49930000	37.56900000
 10.01550000	14.33720000	63.42990000
 8.92164000	15.10980000	68.28730000
 9.50857000	15.08940000	74.37330000
 9.43614000	20.22430000	-0.11048900
 10.04680000	20.86960000	21.30860000
 9.08940000	20.80590000	26.54350000
 9.41071000	20.25120000	31.65170000
 9.60598000	20.32370000	36.71960000
 9.56352000	20.27320000	63.82900000
 9.68967000	20.80490000	68.93140000
 9.20161000	20.21770000	74.19630000
 9.84662000	26.34340000	21.57870000
 9.29721000	26.11620000	26.65240000
 9.48821000	25.72590000	32.16390000
 9.52382000	25.21120000	37.51560000
 9.91647000	26.03820000	63.56180000
 9.81525000	26.27290000	69.16960000
 9.95483000	26.14540000	74.15670000
 13.08140000	3.34292000	-0.32925000
 13.27550000	3.46216000	21.43880000
 12.62090000	3.45247000	26.49430000
 12.84830000	2.78936000	31.88830000
 13.00950000	3.52737000	37.17820000
 12.96170000	3.21266000	64.00830000
 12.89740000	3.43324000	69.15030000
 13.41640000	3.08863000	74.45430000
 13.10540000	9.01497000	21.12130000
 12.69400000	8.96535000	26.29760000
 12.68150000	8.77605000	31.64850000
 12.68180000	9.05211000	37.08980000
 12.87330000	8.75100000	63.75750000
 12.68950000	8.96449000	69.06300000
 13.34170000	8.93012000	74.41020000
 12.86220000	15.11950000	-0.05991590
 12.44830000	14.89830000	21.28490000
 12.54750000	14.79250000	26.61850000
 12.99810000	15.00140000	32.37760000
 13.07740000	14.32170000	37.02490000
 13.06260000	14.39190000	63.94260000
 12.70920000	14.71480000	68.69480000
 12.85010000	14.68750000	74.80350000
 12.82010000	20.31130000	21.55510000
 12.92430000	20.48900000	27.02810000
 12.76780000	20.56840000	32.26950000
 13.02480000	20.33700000	37.55590000
 12.97990000	20.18860000	63.92310000
 12.85090000	20.61220000	69.06300000
 12.46460000	20.42450000	73.72180000
 12.67210000	25.80980000	21.17820000
 12.47680000	26.20440000	26.89420000
 12.51920000	25.67960000	31.74370000
 12.74480000	25.48790000	37.12590000
 13.25900000	26.04330000	63.89430000
 13.21580000	26.12280000	69.04630000
 12.91340000	25.83460000	74.49770000
 1.38204000	4.19450000	24.07530000
 1.42237000	4.29137000	29.28070000
 1.39303000	4.61868000	34.30280000
 1.13802000	3.96025000	39.61090000
 1.41296000	4.11575000	61.43230000
 1.61887000	4.26789000	66.23060000
 1.50091000	4.40152000	71.78750000
 1.74967000	4.05029000	77.03450000
 1.24842000	10.25550000	24.28340000
 1.58100000	9.24412000	28.98440000
 0.82409400	10.50720000	34.94890000
 1.42323000	9.93085000	61.79520000
 1.29542000	9.89142000	66.39370000
 1.25510000	10.28460000	71.32430000
 1.49030000	9.95519000	76.69320000
 1.16274000	15.38300000	23.85260000
 1.24222000	15.44490000	29.48420000
 1.48533000	15.61170000	34.65320000
 0.95948800	15.44510000	61.03850000
 1.52996000	15.42220000	66.25640000
 1.35575000	15.99720000	71.65440000
 1.22849000	15.71670000	76.95460000
 1.76795000	21.22790000	24.11020000
 1.37373000	21.49330000	29.24150000
 1.69990000	21.42920000	34.53720000
 1.54944000	21.04040000	39.63900000
 0.61859900	21.75780000	60.77200000
 0.91632400	21.61960000	66.28270000
 1.22813000	21.02840000	71.54510000
 1.14631000	21.37040000	76.87310000
 1.25770000	27.29470000	24.04390000
 1.36634000	26.66740000	29.09220000
 1.18558000	26.86390000	34.73680000
 1.18475000	26.91940000	61.04810000
 1.36735000	26.93850000	66.36130000
 1.34831000	26.95120000	71.71280000
 1.39561000	26.53670000	77.24480000
 4.40666000	4.71411000	24.08780000
 4.42356000	4.42808000	29.39520000
 4.66167000	4.24591000	34.62030000
 4.72202000	4.01764000	60.82870000
 4.78276000	4.44838000	65.80000000
 4.75883000	4.30549000	71.56540000
 4.81789000	4.42759000	76.59440000
 4.56854000	9.87618000	23.99080000
 4.27833000	10.32550000	29.34120000
 4.47177000	9.59351000	33.93470000
 4.79845000	9.54071000	39.60750000
 4.84723000	10.12000000	60.90350000
 4.89427000	10.28610000	66.18840000
 4.63935000	9.49353000	71.35940000
 4.69431000	9.65194000	76.78420000
 4.77614000	15.78280000	23.94140000
 4.03884000	15.75060000	29.60190000
 5.12050000	15.28150000	34.45670000
 4.98788000	15.07930000	39.50820000
 4.82567000	16.04270000	61.07910000
 4.40139000	15.33100000	66.64750000
 4.72627000	15.63850000	71.98500000
 4.26332000	15.48020000	76.90950000
 4.69673000	21.49010000	23.98920000
 4.49186000	21.75280000	29.30620000
 4.88424000	21.42480000	34.41230000
 5.13625000	21.15000000	39.71170000
 4.44868000	21.64980000	61.21670000
 3.78788000	20.85610000	65.94240000
 4.55696000	21.32590000	71.71180000
 4.54561000	20.99870000	76.82580000
 4.20989000	26.90110000	24.25980000
 4.52115000	26.89650000	29.51040000
 4.20605000	27.09450000	34.75610000
 4.80207000	26.67730000	39.60020000
 4.43139000	26.52430000	61.19270000
 4.71118000	27.13760000	66.85200000
 4.27496000	27.71810000	70.82000000
 4.88526000	26.95190000	77.02490000
 7.76453000	4.71699000	23.86550000
 8.03683000	3.60130000	29.51300000
 7.89675000	4.42159000	34.31010000
 8.07830000	3.66504000	39.64960000
 7.93340000	4.15893000	61.21780000
 8.18954000	4.44242000	66.54170000
 8.33749000	4.36327000	71.57620000
 8.12373000	4.38021000	77.09930000
 8.23366000	9.69551000	24.65130000
 7.68137000	10.34970000	29.50410000
 7.71582000	9.90623000	34.21050000
 7.94623000	10.02600000	61.04960000
 8.33811000	10.69450000	66.31720000
 7.87214000	9.98504000	71.49680000
 8.06846000	9.86392000	76.85670000
 7.61906000	15.72860000	23.76730000
 7.84184000	15.98520000	29.43490000
 7.96984000	15.65090000	34.65880000
 7.96699000	15.28720000	61.39250000
 7.42644000	15.50390000	65.96310000
 7.70422000	15.01770000	71.80950000
 7.66225000	15.81190000	77.18580000
 7.67261000	21.77680000	23.64220000
 7.57233000	21.25730000	29.16370000
 7.62085000	21.15800000	34.13850000
 8.09017000	20.65950000	39.55330000
 7.88445000	20.76910000	61.12020000
 7.85682000	21.25910000	66.51170000
 8.01619000	21.94110000	71.49180000
 7.97495000	21.44670000	76.58480000
 7.70332000	27.54890000	24.17330000
 8.02783000	26.87960000	29.50530000
 8.26820000	26.69480000	34.90520000
 7.75537000	26.40290000	61.37940000
 7.89708000	27.21830000	66.30310000
 7.78973000	26.96070000	71.85550000
 8.26837000	26.92250000	77.15470000
 11.17430000	4.55206000	24.12160000
 11.14650000	3.72159000	29.43940000
 11.90810000	3.98503000	34.46240000
 10.96900000	4.29642000	60.84130000
 11.73880000	4.26158000	66.41860000
 11.43110000	4.62182000	71.67680000
 11.49700000	4.08943000	77.02250000
 10.96420000	9.98022000	23.96500000
 11.25800000	9.95499000	28.97420000
 10.62500000	9.89459000	34.80590000
 11.48650000	9.92839000	60.96260000
 11.15380000	9.85897000	66.33420000
 11.91290000	10.19940000	71.89700000
 11.29770000	9.77533000	77.25950000
 10.86290000	15.50840000	24.09870000
 11.18220000	16.03760000	29.44870000
 11.15500000	15.34490000	34.90940000
 11.21630000	15.36820000	60.90390000
 11.37330000	15.71490000	66.23450000
 11.23690000	15.80360000	71.37150000
 10.83370000	15.58020000	76.72450000
 11.08700000	21.19510000	24.18730000
 11.54570000	21.35530000	29.85670000
 10.96050000	20.97490000	34.26500000
 10.79100000	20.93520000	60.95110000
 11.29580000	20.96250000	66.34320000
 11.20470000	21.63350000	71.44050000
 10.98830000	21.11250000	76.84180000
 11.05580000	27.08360000	24.02960000
 10.99260000	26.76220000	29.43330000
 11.36150000	26.42960000	34.47510000
 10.95710000	26.29410000	39.61910000
 10.86540000	27.08450000	60.72830000
 11.18110000	26.78650000	66.40920000
 11.26600000	26.73900000	71.77950000
 11.54930000	27.24790000	77.12190000
 14.81040000	3.95077000	23.73550000
 14.44770000	4.08558000	29.19560000
 14.60120000	4.31441000	34.36200000
 14.38050000	4.03171000	61.34730000
 14.83700000	4.05486000	66.85950000
 14.40890000	4.05616000	71.70760000
 14.70990000	4.58211000	76.70460000
 14.58190000	10.08080000	23.95330000
 14.68660000	10.16590000	29.50360000
 13.86020000	10.11140000	34.25440000
 14.26050000	9.83094000	39.75290000
 14.44570000	9.74806000	61.14720000
 14.25360000	10.24080000	66.14090000
 14.44890000	10.14600000	71.65610000
 14.76270000	10.22280000	77.26000000
 13.97290000	15.49700000	24.09290000
 14.54360000	15.55020000	29.75540000
 14.82820000	15.82940000	34.66710000
 14.22470000	15.19470000	60.93560000
 14.89910000	15.64930000	66.46110000
 14.27360000	15.46200000	71.33510000
 14.39310000	16.00440000	76.94410000
 14.29200000	21.14270000	24.26780000
 14.72080000	21.36070000	29.29230000
 14.72820000	21.11470000	34.72700000
 14.71030000	20.52190000	39.61480000
 13.92150000	21.42380000	60.83100000
 14.01620000	21.51800000	66.45050000
 14.38640000	21.16810000	71.66960000
 13.94970000	21.46520000	77.15340000
 14.63180000	27.13460000	23.98840000
 14.52560000	26.54190000	29.14420000
 14.34590000	26.29860000	34.77350000
 14.29710000	27.12510000	61.21530000
 14.24880000	27.37890000	66.35980000
 14.12730000	27.29550000	72.09090000
 14.42520000	26.27090000	77.17860000
 15.88470000	1.40916000	23.61960000
 15.79660000	0.83425600	29.18010000
 15.82970000	1.61786000	34.85010000
 15.88360000	1.38669000	61.38460000
 0.33463500	1.12266000	66.48870000
 0.04272790	1.56502000	72.19020000
 0.23179300	1.28848000	76.87790000
 0.23598500	7.16072000	23.97810000
 15.92630000	7.07605000	29.52920000
 16.26986967	7.73255000	34.43740000
 16.35102038	7.09991000	61.29320000
 16.08790000	6.77869000	66.55630000
 16.06540000	7.39465000	71.80770000
 16.06787797	6.99884000	76.90250000
 15.87850000	12.66600000	24.01700000
 16.08654497	13.06770000	29.38890000
 16.31841077	13.33740000	35.26220000
 16.03590000	12.59140000	60.80190000
 16.10339197	12.89320000	66.60160000
 15.90370000	13.00450000	71.68500000
 15.63770000	13.08320000	76.76260000
 16.26783587	18.08120000	24.37260000
 16.09208697	18.50130000	29.70650000
 16.14594397	18.49430000	34.61370000
 16.22894897	18.07240000	39.51900000
 15.27440000	18.54180000	61.36330000
 15.83680000	18.96190000	66.03990000
 15.98000000	18.40060000	71.74640000
 15.70010000	18.44010000	76.62860000
 0.06400880	24.15800000	24.36980000
 16.23894397	24.08710000	29.50260000
 16.15580000	23.85350000	34.91190000
 15.96040000	24.30590000	61.17240000
 15.60130000	24.35930000	66.85440000
 15.49690000	24.61930000	71.56290000
 0.06422540	24.11980000	77.06600000
 3.12482000	1.69063000	24.13530000
 2.65361000	1.23807000	29.54350000
 2.96667000	1.55018000	34.67200000
 3.31767000	1.13854000	61.11420000
 3.08243000	1.22532000	66.08750000
 3.19154000	1.78946000	71.78930000
 3.44984000	1.24918000	76.96120000
 3.00315000	7.43075000	23.95470000
 2.76826000	6.82813000	28.97270000
 2.94553000	6.99980000	34.45570000
 2.82348000	6.54209000	39.40110000
 3.24281000	7.00642000	61.45050000
 2.88894000	6.98908000	66.02890000
 2.56237000	7.19049000	71.54010000
 3.27922000	7.26057000	76.67260000
 2.82673000	12.72900000	24.04900000
 2.68760000	12.96120000	29.27370000
 3.05237000	12.50660000	34.57880000
 2.93836000	12.86270000	61.51100000
 2.86190000	12.96930000	66.31190000
 3.17759000	12.55180000	71.99550000
 3.12229000	12.83490000	76.82160000
 2.84012000	18.35040000	23.49280000
 3.17703000	18.75860000	29.50610000
 3.02215000	18.27240000	34.55300000
 3.03710000	17.79060000	39.64330000
 3.01585000	18.48850000	61.22270000
 2.38313000	18.27060000	66.37370000
 2.73308000	18.59710000	71.40560000
 2.73759000	18.27660000	76.61130000
 3.00101000	24.27350000	24.17080000
 2.98331000	24.23570000	29.08460000
 3.12078000	24.02360000	34.71010000
 3.06016000	23.94070000	39.47510000
 2.49797000	23.80280000	61.43430000
 2.77382000	23.86980000	66.32990000
 2.71762000	23.82420000	71.81270000
 3.52864000	24.30010000	76.68730000
 6.30179000	1.77526000	24.40430000
 6.21705000	1.25678000	29.33590000
 6.20764000	1.33569000	34.63300000
 6.49797000	1.35717000	39.67230000
 6.25152000	1.31095000	61.35240000
 6.53536000	1.68757000	66.31260000
 6.53885000	1.69162000	71.69050000
 6.55345000	1.62750000	77.30710000
 6.07287000	7.21798000	23.78510000
 6.63230000	6.78561000	29.14530000
 6.10567000	7.38966000	34.41960000
 6.58234000	7.02325000	39.56300000
 6.62260000	6.93626000	61.08580000
 6.48715000	7.29609000	66.34120000
 6.55422000	6.86936000	71.29710000
 6.18532000	7.13771000	76.65590000
 6.30268000	12.87720000	24.28270000
 6.02995000	12.82310000	29.15260000
 6.04038000	12.48530000	34.48920000
 6.24911000	12.07630000	39.73100000
 6.12057000	12.90720000	60.67160000
 6.11872000	12.84380000	66.21160000
 5.93172000	12.38370000	71.75610000
 6.31186000	12.75730000	76.92940000
 5.94749000	18.46480000	24.00210000
 6.28889000	18.21670000	28.80770000
 6.24811000	18.20080000	34.69200000
 6.20917000	18.56330000	60.88000000
 5.79553000	18.65500000	66.40520000
 6.56393000	18.42250000	71.54410000
 6.40588000	18.61490000	77.00670000
 6.80424000	24.88030000	24.28350000
 6.47046000	24.36500000	29.42380000
 6.37249000	24.17990000	34.35560000
 5.99766000	23.79510000	61.01480000
 6.18121000	24.11680000	66.24270000
 5.48112000	25.16340000	72.14360000
 6.49615000	24.10330000	77.20850000
 9.36556000	1.81468000	23.81520000
 9.57769000	1.23395000	29.26220000
 9.36102000	1.64265000	34.51090000
 9.72950000	1.10858000	39.57890000
 9.52518000	1.60898000	61.12000000
 10.04150000	1.45791000	66.52650000
 9.72518000	0.57398700	71.69380000
 9.96171000	1.22187000	76.97490000
 9.55870000	6.88436000	24.43560000
 10.08250000	6.74137000	29.77460000
 10.32470000	6.57527000	34.24030000
 9.65871000	7.27110000	61.50010000
 9.84090000	6.72267000	66.27370000
 10.09560000	7.43921000	71.79390000
 9.43947000	7.25136000	76.84990000
 9.55663000	12.56040000	23.89950000
 9.85972000	13.45460000	29.21110000
 9.90227000	12.94110000	34.61370000
 9.69313000	12.10440000	39.74380000
 9.64705000	12.52870000	60.76830000
 9.59013000	13.15520000	66.34820000
 9.45825000	12.46970000	71.83140000
 9.38979000	12.69630000	76.88190000
 9.40418000	18.38170000	23.97020000
 9.83258000	18.88120000	28.70970000
 9.70137000	18.28950000	34.55030000
 9.29746000	17.93210000	61.10120000
 9.38789000	18.31950000	66.43570000
 9.44561000	18.93230000	71.28730000
 9.60831000	18.51320000	76.80790000
 10.04150000	23.96770000	24.37290000
 9.89825000	23.75440000	29.47560000
 9.58821000	23.65520000	34.89100000
 9.28377000	23.03660000	39.66670000
 9.55047000	24.29020000	60.93750000
 9.46237000	24.12550000	66.04910000
 9.34540000	24.40470000	71.55170000
 9.92187000	24.56550000	76.93490000
 12.48560000	1.87355000	23.96830000
 12.57290000	0.99346400	29.34950000
 12.88970000	1.30537000	35.07600000
 12.69600000	1.43808000	60.84030000
 13.19740000	1.58486000	66.70470000
 12.78070000	1.54822000	71.68600000
 12.92940000	1.11898000	76.92090000
 12.81200000	7.17848000	24.17770000
 13.15420000	7.33256000	29.14420000
 13.41150000	7.04862000	34.24040000
 12.82540000	6.85968000	61.06100000
 12.96460000	7.02349000	66.41380000
 12.99200000	7.14778000	71.59050000
 13.17920000	7.41129000	76.94780000
 12.77520000	12.55170000	23.95380000
 13.16380000	12.92690000	29.35110000
 12.58870000	12.88230000	34.35170000
 12.87430000	12.69400000	39.50340000
 12.96970000	12.75410000	60.79250000
 12.22240000	12.70620000	66.37690000
 12.33320000	12.98700000	71.33790000
 12.66800000	12.55910000	77.43640000
 12.38040000	18.28420000	23.69030000
 12.86770000	18.45230000	29.47720000
 12.49710000	18.55150000	34.60330000
 12.40960000	18.01030000	60.98210000
 12.78600000	18.48000000	66.37470000
 12.70340000	18.57550000	71.47810000
 12.51530000	18.39430000	76.64140000
 13.09540000	24.05310000	24.10860000
 13.12680000	24.06870000	29.46480000
 12.87980000	23.17720000	35.03890000
 12.81110000	23.65580000	39.36420000
 12.80640000	24.17910000	60.87360000
 12.54490000	24.25750000	66.16650000
 12.51450000	24.25560000	71.92410000
 12.61530000	24.02910000	77.04390000
 4.01511825	0.09797764	6.11813821
 2.02834850	2.26114830	6.52834939
 1.98327055	1.87341060	11.76751444
 1.54389625	3.60442991	1.09291096
 12.30109585	4.30494381	6.63995894
 16.26828826	2.10137327	14.69496118
 15.92492493	7.05624226	17.22177745
 15.31330934	8.33990646	3.24677225
 4.34053461	13.49653153	10.33845561
 14.90706517	11.26518258	10.00406670
 13.31212175	7.13571342	15.77409988
 4.84728258	11.93620588	1.05804993
 2.10485376	16.43286662	6.36398049
 3.59406329	18.85386479	9.61513142
 0.05855838	20.00018067	14.56930804
 0.66306121	24.42180506	2.41480440
 2.76915934	22.23602058	5.17906112
 1.30493074	23.15367207	12.96613121
 2.67658021	22.66808773	18.75684148
 4.08048969	25.00319642	4.64993324
 3.88940898	1.80003029	8.96489749
 4.92826008	1.54213729	11.98616773
 2.90676029	8.06704361	4.71318084
 6.52146326	3.62699695	7.17277314
 2.46262370	3.74168468	14.19674603
 2.41288639	5.28850940	19.18975069
 3.77766844	8.56138532	1.35839180
 2.06777533	9.61185676	11.20885853
 3.90445367	12.67852306	15.91107396
 2.05279613	8.31073398	18.97886300
 3.93483310	15.57752710	3.91582140
 4.38894335	18.90270391	6.82396640
 0.12137925	16.39946515	14.67578106
 2.96231713	16.76613279	19.30370863
 6.45605439	23.13411771	1.42219141
 6.47733964	22.84529327	10.00387958
 7.46817496	22.64067420	15.37187886
 3.02873646	20.56276616	16.81497191
 6.15037951	25.72015843	2.59971006
 9.79954119	4.53550749	11.29016350
 10.86885593	26.68983013	17.64907296
 8.83953439	8.27645303	3.85787874
 8.40127347	2.36027674	9.54093712
 7.80538943	6.46011496	11.42526636
 6.49827871	7.03108356	18.35630457
 7.19325376	13.68122199	5.88502030
 5.29077359	9.20100001	5.62623846
 6.02526903	8.83700823	16.22777974
 6.73153696	17.97204736	2.73311944
 7.29506742	18.77443105	5.05172388
 7.78078275	16.19718512	12.43339185
 3.43587881	13.84383193	19.82746608
 11.06374460	22.12056565	1.49869667
 10.01276792	21.97498390	10.18314347
 8.08914285	21.15781749	11.84704174
 9.90825969	23.35033841	18.21165844
 3.76603874	0.24386252	19.81212199
 10.47000312	24.40047303	8.36693639
 12.78630595	4.42726615	1.51260927
 11.82374492	8.06976625	3.67651907
 6.94374387	10.97523539	11.99252992
 9.34669403	12.72829780	7.07641412
 5.10477327	10.05000541	10.19409017
 10.35501600	12.12866195	17.15834273
 9.15923414	12.54463651	19.44086984
 11.52528363	16.00828439	1.74351913
 9.09381592	15.73330705	7.07753686
 7.90563126	17.63298037	17.10061526
 9.01748842	20.65810536	19.70583609
 13.39436234	21.38358147	2.52808870
 12.94900945	19.03219307	11.94818175
 10.14581242	24.66955600	15.22040274
 14.08718547	25.34516381	0.68635991
 0.40411845	24.11520393	7.93033150
 11.77088265	1.54457925	11.84320571
 10.10792000	1.33194196	17.40609366
 0.40800032	2.52363518	3.19331119
 12.09114377	6.29074988	11.01584110
 10.09360509	7.03856848	12.94451850
 11.64148705	3.64106861	17.44183417
 12.64278256	10.36091038	2.01902041
 12.00422511	11.61229586	8.30871305
 12.35274181	10.39562171	15.89254878
 14.74146126	9.39432620	17.45811387
 0.78277506	16.61381462	8.42221254