
ISTART=0

ISMEAR=0
SIGMA=0.3


LCHARG= FALSE
LWAVE= FALSE


PREC=low

NCORE=4

LREAL= Auto

ISYM=0

ML_LMLFF= TRUE
ML_MODE= run

IBRION=0
MDALGO=3
ISIF=3
LANGEVIN_GAMMA = 16
LANGEVIN_GAMMA_L = 10
PMASS = 1000

POTIM=1





