Mg2
1.0
        3.1720232964         0.0000000000         0.0000000000
       -1.5860116482         2.7470527560         0.0000000000
        0.0000000000         0.0000000000         5.1412048340
   Mg
    2
Direct
     0.333333343         0.666666687         0.250000000
     0.666666627         0.333333313         0.750000000
