unknown
  1.000000
13.79603900	-0.72480000	-0.09982900
-6.37434600	11.04069200	1.14823600
0.00000000	0.00000000	43.19578300
Mg 
249 
car
 -2.99668161	6.68964472	23.80528393
 0.09790983	0.32252000	28.16224814
 12.33259330	1.40546797	33.93075538
 12.29594654	0.17097546	39.06136604
 -1.05540413	7.73562178	19.94676529
 -1.19283587	5.35096002	26.03872120
 -1.44789445	6.17801684	31.42460348
 10.41015100	3.44680736	40.08974604
 1.30734133	8.90219214	18.60025326
 -4.69028986	8.90354623	29.15662799
 -2.98659242	8.52197038	31.90498927
 9.69828992	6.00781076	38.21397914
 7.10279785	9.52205578	21.17998630
 6.88575247	8.49673117	26.74136502
 7.03673503	9.50928933	34.76243029
 7.14147054	8.21713966	40.02425065
 11.42214674	1.72483114	20.69613356
 2.87037062	0.74084303	27.81411612
 2.25218573	2.35583245	33.56581239
 1.76862092	1.05066857	39.34425543
 1.84835467	7.43965429	21.25516914
 2.03268664	8.37543250	29.11527678
 0.38159738	4.99411331	33.47958052
 0.08279198	3.79201620	39.25799089
 0.39563142	9.96398526	20.76325249
 -1.41628772	8.32926420	28.94669399
 -1.35510538	7.22384869	34.47908634
 -1.57086950	6.50313400	40.11064478
 -1.68299766	9.59383423	23.81225950
 5.50451777	-0.01755373	26.56577477
 -3.31314948	9.69711214	34.43300396
 -3.20769094	9.33583173	39.93250169
 5.16828319	4.17489860	23.04205087
 5.61401363	2.37661382	28.94012954
 5.54445004	1.47917046	34.14105930
 6.40653049	0.59198641	40.32406210
 2.76509896	6.17371737	24.27434151
 4.46375158	5.40505740	28.70010328
 3.46229839	5.54078337	33.80025692
 3.57946862	3.73182201	38.93877347
 9.52368579	0.58765814	23.41706872
 3.54382212	9.19780541	26.32418170
 1.71364297	7.61688453	34.82855623
 1.92938136	6.06443300	39.55660267
 6.43142795	1.11404778	23.64970219
 7.59171857	0.12363747	29.33666110
 0.65394239	10.22588162	34.67011703
 0.21380029	9.17481830	39.45403163
 7.70855345	6.19759112	21.73737692
 8.85056412	2.31733650	28.52020812
 8.74899341	1.59780069	34.39667101
 8.90831862	0.15771116	39.07992129
 5.12146531	6.43775948	26.35188421
 7.36192903	5.65045127	28.26252498
 10.15178790	4.00406268	32.70684009
 7.29360937	3.47032481	39.17546413
 -5.13280327	10.02109446	24.10441290
 5.86194092	8.13732717	29.28157160
 7.39513409	4.17056197	33.72392546
 5.12561439	5.92629717	39.78350823
 11.48215038	3.17673070	23.53148278
 10.57623543	-0.49440157	28.49293203
 4.29682174	9.83525232	34.81004156
 3.29393652	8.16665318	40.69915374
 0.83685634	4.08516493	24.23518756
 -0.03153612	2.75969827	31.44289121
 -0.17090015	2.28443074	36.81533338
 0.70969570	0.61756608	41.75738328
 -0.23212841	6.86559118	23.45721745
 0.47642088	8.10077923	31.90852720
 -2.49731554	5.04139474	35.81690311
 -0.90666352	3.37333378	42.46596594
 -2.98021283	9.21603338	26.26914461
 5.31871996	-0.18162179	30.90661881
 8.74827069	6.82143978	34.22332486
 -3.21309485	6.19331667	42.34159035
 3.55202896	3.50025992	26.09485412
 2.24613417	0.52930083	30.66793925
 -5.11992353	10.10855932	37.54318916
 -4.40476731	8.88616963	43.07816437
 0.57854642	1.68660359	22.04913595
 4.34364764	3.48476319	31.83431037
 3.39768025	1.05663645	36.55325260
 3.55039084	0.08150213	42.23511819
 1.77703682	5.87364833	27.05060551
 2.34164236	5.25998264	30.69262163
 2.01075259	4.38651730	36.01338349
 1.94004898	3.78316104	41.77510221
 -0.17392752	8.18235444	26.44489082
 3.90977707	8.29836511	31.97777881
 -0.17238088	6.26259339	37.08674848
 0.35966687	6.42982652	42.04866588
 0.71465091	1.09334554	25.25120156
 7.13079406	2.42129236	31.35271262
 -1.79442548	9.05984287	37.08349620
 -1.19334518	8.90880085	42.28390956
 6.76130581	3.36764260	25.90002672
 8.94640221	4.52622430	30.55263954
 6.71549384	1.14874622	37.14213979
 5.72094962	-0.12432904	0.32755958
 1.46661725	3.12542482	28.71118556
 5.86183622	5.50373033	31.44896695
 5.04550419	3.75442028	36.67416532
 4.72171155	2.88457942	41.93828963
 1.85143717	9.09889766	23.90581685
 5.92739976	6.87440513	34.75665981
 3.63632428	7.09593534	36.82892926
 4.02116298	5.83498370	42.64557009
 8.38594725	0.57000179	26.20785451
 9.83429997	1.16993501	31.26539058
 2.52329398	9.70792562	37.20308499
 1.80099599	10.11418764	42.97290312
 -1.90070047	3.42436737	29.20566586
 -0.22049074	5.74049039	28.80849169
 10.45007805	1.53873058	37.06283302
 11.09409889	0.47944942	41.54599065
 9.64973303	3.48305909	25.88592163
 10.22787390	5.27276429	28.02048723
 8.75296620	3.80633865	36.58706566
 8.82509242	2.56739869	41.87698575
 8.09383951	6.58943894	25.52396413
 7.85503494	7.65750243	31.69990743
 7.06966839	6.27131133	37.38303438
 7.32342512	5.28678625	41.84778207
 11.72690671	0.96635302	25.90203072
 12.36274979	-0.58385905	30.57591838
 5.75696018	9.37124095	37.45286185
 5.37421149	8.62363774	42.96971060
 -0.72626222	1.67617341	7.41884866
 1.01583273	2.70086233	16.32209099
 3.32891209	2.01339594	18.07781409
 8.78099120	4.68579490	1.20855673
 -1.87043020	4.46690697	12.61253468
 4.02017294	9.39940420	10.97167517
 9.70751427	2.76292107	11.07768654
 4.46468873	3.14114908	12.85245742
 1.00659709	3.74117232	12.57127248
 0.19603537	10.31909938	5.05876387
 3.85324076	1.41781343	8.22959843
 1.99972045	1.01248515	13.42975371
 2.67648201	0.78903643	20.60084623
 11.51584367	0.91917355	3.57368734
 1.55200513	0.77547538	10.08031625
 4.69548372	4.80839131	18.76362903
 3.62406805	1.33203129	23.65465092
 -0.15163271	1.93522484	1.72732064
 7.09662251	1.74478886	12.71383797
 0.23160168	5.57791416	14.63107054
 2.24532212	4.26664069	4.19615341
 -0.81779553	1.61323648	13.46915629
 5.27125389	7.13365312	16.44490987
 5.12379959	7.14948417	21.00230030
 -3.32175820	8.09074269	2.37156676
 8.92608570	1.35510013	5.33912988
 -0.85526917	9.74513605	14.25045151
 -3.34119674	8.80331546	21.54250717
 6.71927214	2.30793278	1.91828367
 6.63484649	1.56087774	7.01125843
 3.95590499	1.39748090	15.10537268
 8.34922031	3.67904301	23.20645521
 2.90837631	2.05380771	1.26497707
 2.14529031	3.62358038	7.64568296
 4.95488918	4.24269453	6.87701575
 6.73069096	3.33658514	15.54123471
 1.56271580	5.31125041	1.07891717
 9.08403349	6.36522054	4.38149578
 3.24542881	6.50010487	12.87379949
 5.02280195	8.85959023	18.48905633
 -0.34948768	7.94828938	1.57978299
 -1.23394726	10.24724570	7.69385956
 12.19633834	0.43033833	10.25661080
 8.95489221	0.64506654	17.51189215
 5.06945938	9.58562946	2.69118439
 9.63788102	1.00918919	8.09506924
 5.05771029	8.92532519	13.88966629
 -1.03673637	4.38204963	18.31402520
 7.04467916	7.08818731	1.89641938
 -1.70324428	7.41508261	4.64234492
 8.97865823	4.70259203	13.06427599
 2.13037004	5.29412667	18.10495198
 5.22192824	6.53450361	4.78433050
 8.42663103	4.19683983	7.80428777
 7.28994966	4.44488968	18.97270355
 9.84405125	3.10368413	18.08436985
 6.14326434	1.60478354	18.29564299
 1.79605243	6.28784502	10.39181264
 0.01501642	3.77380538	9.70997200
 8.90172055	-0.36852612	12.12748824
 6.98444948	9.12338826	5.37584253
 4.35307822	0.41903339	10.94764107
 11.77735860	0.86953965	17.68316250
 -5.30603440	10.58586118	2.54686386
 -1.56016580	5.52756624	1.59613184
 6.89068863	8.53899540	10.48958778
 10.10072018	4.94293414	20.66418237
 1.56341337	1.67313228	4.84460004
 8.49843160	6.13143754	10.20240487
 -5.17858039	9.45802304	13.24461649
 3.22628434	4.46653939	15.16426714
 -2.68490902	10.09647934	4.16728248
 -2.94262705	9.27584536	10.40390651
 1.02335030	0.02318151	17.43315876
 11.99268696	-0.60334503	22.57764242
 4.65812021	1.95048294	4.57155555
 -1.86373709	6.54605127	10.27266839
 7.10708536	0.10122595	15.35398975
 5.85503057	2.27042790	20.98118677
 2.97011146	6.37833439	7.07815056
 7.45575528	0.03438003	9.54083686
 4.20976262	10.28895110	16.12312376
 2.61331533	4.04995338	21.40948528
 0.13413743	7.41865148	8.00166387
 3.46550236	3.95933736	10.23491441
 7.70302302	7.46234698	18.86704646
 5.74880122	7.53362059	23.80187334
 2.50553872	9.05048670	8.61777572
 -2.59561300	7.59384438	13.12112404
 -2.12920635	10.00283534	18.35434360
 -0.61811013	4.87183317	21.05449184
 8.83077935	-0.40074041	1.89718896
 9.80620423	2.23539649	14.66889304
 2.10425076	8.02453170	15.60116926
 3.89705307	10.30520258	21.07191352
 11.04780150	3.90847327	4.64749823
 6.44156312	4.07444921	10.46276514
 -2.96406951	5.65919599	15.61697862
 7.29629278	3.98921257	4.11198237
 4.56576636	4.59690955	2.23739632
 11.36132329	3.27786991	8.22529982
 0.29426915	8.06401365	12.11082153
 1.74426657	7.29759345	4.11700774
 5.72389447	8.94398466	7.95576538
 7.32385971	9.33816088	15.81064482
 3.28016693	7.70534524	1.85092708
 3.84713684	9.24105319	5.43566412
 6.19130818	6.23019960	13.26587694
 4.60735773	6.70772711	9.53734061
 8.56657152	1.60691564	20.61268635
 10.47223680	2.53267328	1.12132344
 0.00479493	4.47626201	6.28456295
 -1.00340309	7.82491241	16.22769214
 -0.22043986	4.82888796	3.67898581
 7.11215370	6.53091820	6.92567108
 8.44757227	6.44824822	15.90456754
 -3.73212216	7.17279576	18.39142010
 -3.63902515	7.15586767	7.64139088
 -4.92089506	10.27845555	7.78323544
 -3.48359016	9.02589930	15.90231939
 0.50685200	2.41436818	19.37871038
