Cu4
1.0
   3.69    0.0000000000000000    0.0000000000000000
   0.0000000000000000    3.69    0.0000000000000000
   0.0000000000000000    0.0000000000000000    3.69
Cu
4
direct
   0.0000000000000000    0.0000000000000000    0.0000000000000000 
   0.0000000000000000    0.5000000000000000    0.5000000000000000 
   0.5000000000000000    0.0000000000000000    0.5000000000000000 
   0.5000000000000000    0.5000000000000000    0.0000000000000000 
