Cu
  1.000000
17.88715300	0.00000000	0.00000000
0.00000000	17.88715300	0.00000000
0.00000000	0.00000000	35.77430700
Cu 
987 
car
 17.28950261	17.50449993	34.98592427
 17.22902257	17.18335005	20.87945963
 17.31267542	17.81180015	24.10663232
 17.28171419	17.55497909	27.94629764
 17.29613714	17.48507717	31.35741036
 17.35017494	3.38883400	34.76179251
 17.70473785	3.32545982	20.58917474
 17.28825266	3.10078949	24.11874765
 17.10133173	3.26624905	27.86052945
 17.12065844	3.24860498	31.91778841
 17.62247930	6.54053641	35.43591783
 17.60738344	6.55619965	21.08666871
 17.61397074	6.49890227	24.37845624
 17.31757918	6.29477963	27.89408682
 17.37238614	6.69424608	31.56577316
 17.17969624	10.26929894	34.73006213
 17.14786963	10.48631554	20.73667293
 0.20060621	10.72496647	24.39710968
 17.24671458	10.42468178	28.03120044
 17.17979248	10.06218610	31.17058584
 17.58345472	14.07482992	34.71611981
 17.68852368	14.23627024	20.26119804
 17.49180792	14.14992519	24.32845664
 17.26363761	14.17425172	27.87831787
 17.49959617	13.99261931	31.32202635
 2.99596379	17.51422089	35.31495882
 3.14110624	17.47998112	20.99272753
 3.22394182	17.48036569	24.66787575
 3.24148000	17.57161450	28.38129246
 2.84578290	17.27450281	31.37116022
 2.91167631	3.19814407	35.03005832
 3.21222073	2.91501280	20.56782893
 3.37097851	3.21863417	24.16884313
 3.19092303	4.12828658	27.61053251
 3.17397120	3.22906667	31.19471991
 2.97085828	6.85805180	34.87544498
 3.35008453	6.94298340	21.01215047
 3.45416987	6.75269718	24.25441920
 3.00210803	6.88593608	27.97812425
 3.28583531	6.78521603	31.66356044
 3.33085405	9.87574598	35.28357437
 2.86449429	10.57256453	20.91224786
 3.28254693	10.46362354	24.55999225
 3.06002073	10.15978109	27.82851073
 3.32945975	10.24362623	31.13231699
 3.49352501	13.94521603	35.22453389
 3.34277691	14.24684709	20.86878673
 3.09155882	14.18338633	24.13172836
 2.96146413	14.07906059	27.76726154
 3.17348091	13.99608083	31.36577583
 7.00511729	17.80844863	35.17657772
 7.15229815	17.45488526	20.33860112
 6.70868817	17.80400511	24.86470026
 6.36498080	17.51277381	27.54630261
 6.73162057	17.44623146	31.45894751
 6.60831441	3.27776802	34.70131247
 6.93929113	3.34281537	20.94772810
 6.62335268	3.24933567	24.49355077
 6.88541682	3.34280571	28.05004635
 6.59470873	3.00217529	31.63413787
 6.81435027	6.89243592	34.82900313
 6.82102343	7.08256830	20.90638266
 6.91034918	7.16008657	24.06220993
 6.99224247	6.51714234	27.57370608
 6.48326783	6.54349781	31.87336566
 6.67062127	10.36208640	34.93429050
 6.94182002	10.55535316	20.77032653
 6.61914115	10.73958171	24.48547401
 6.97028116	10.31699074	27.53880252
 6.69299613	10.26651051	31.72144435
 6.65617918	13.85060193	34.78015761
 6.87064775	14.67020738	20.70898111
 6.64808310	14.06175316	24.67845242
 6.75153380	13.91867793	27.78216512
 6.96002163	13.91281256	31.19673937
 10.30199093	17.40488584	35.24907399
 10.47439268	17.43036627	20.99705443
 10.58400677	17.62307637	24.37076405
 10.19391533	0.18112764	27.81966446
 10.14862738	17.65232223	31.43683255
 10.08949352	3.47042929	34.70015839
 10.56458382	3.25264337	20.90474813
 10.51218072	2.91648402	24.50903139
 10.28958727	3.43892000	27.96889340
 10.36497089	3.44959291	31.43010197
 10.36660541	6.52171930	35.62878964
 10.39189373	6.96371390	20.71946191
 10.30929855	6.60362207	24.16663156
 10.11382005	6.95746395	27.95216283
 9.88430355	6.80926387	31.50202406
 10.22343414	10.19756913	35.20407170
 10.50564225	10.30189470	20.94743976
 10.60141043	10.64948662	24.39730214
 10.32977898	10.24410703	27.67505112
 9.77651646	10.13930048	31.37048730
 10.33324051	14.31175009	34.56977535
 10.48785402	13.97435044	20.50417571
 10.18660771	13.73694947	24.08778642
 10.17199247	14.14963667	27.94745136
 10.26170298	14.05319558	31.38500631
 14.10992558	0.09619013	34.98457808
 14.18117477	17.26536837	20.70850030
 13.89050531	17.69300441	24.26922655
 13.77031437	17.25354157	27.83543377
 13.88627446	17.75567098	31.22116213
 13.59983567	2.85438859	35.47196545
 13.87223627	3.13345250	20.86292153
 13.66521948	3.50917877	24.55403081
 13.46839497	3.44247758	28.10033429
 13.48320249	3.20941316	31.72961734
 13.91060117	6.83004249	34.74102338
 14.12550243	6.82620605	21.14128356
 13.96252364	6.48112352	24.33836040
 13.77339132	6.80410039	27.63149375
 13.48608698	6.98469445	31.66307964
 13.90944727	10.61400638	34.62073657
 14.41905655	10.34199037	20.96686271
 14.44636397	10.77236976	24.27701497
 13.32906961	10.18314619	28.34667760
 13.85233269	10.28968332	31.61317663
 13.79781408	14.28338518	35.06332735
 14.24896242	14.11857939	20.89695971
 13.81685227	14.04184958	24.11259375
 13.53810568	13.92281255	27.94841297
 13.59185496	13.91338960	31.30154556
 17.19056144	1.84640083	19.05486659
 17.43584707	1.62006699	22.24434711
 17.11921620	1.55249094	26.21910694
 17.27065671	1.64060520	29.88713965
 17.12450454	1.39575244	33.24306085
 17.80159213	5.07759249	19.13649998
 17.79486012	4.87177772	22.24194343
 17.30065633	4.72957754	25.89122647
 17.35229028	4.93865189	30.23348181
 17.46365623	5.05495809	33.32796365
 17.62059078	8.43230192	19.35572815
 17.54343705	8.33239931	22.83789760
 17.79241978	8.62303049	26.27852949
 17.43623165	8.41308111	29.52127867
 17.39959750	8.49119555	33.24161843
 17.58872982	12.31177427	18.70102471
 17.57926537	12.18091043	22.37732629
 17.79661181	12.18667958	26.08208956
 17.63267158	12.04014301	29.74791070
 17.60738344	12.10831524	32.68374065
 17.72951459	15.80125142	18.66121721
 17.66804986	16.19095810	22.64722698
 17.16835024	16.01346031	26.13699274
 17.54469183	15.99028750	29.91088950
 17.03335179	15.85673146	33.12508148
 3.30022928	1.45910730	18.87121489
 3.10952969	1.39530043	22.61165051
 3.24647033	1.64683583	26.53371872
 3.53085156	1.70996979	29.29714692
 2.84982128	1.12977476	33.20325370
 3.41975678	5.00429523	19.42630442
 3.43142010	5.24082135	22.81712882
 3.20550929	5.07634254	25.94132195
 3.02988642	5.10481334	29.97800389
 2.83895609	5.10080376	33.33142518
 3.42629507	8.78844194	19.41697735
 3.13116402	9.01888141	22.34424972
 3.16087530	8.32794738	25.99737886
 2.87135956	8.25333291	29.90521641
 2.76793765	8.46019587	33.33604042
 2.82741780	11.92639431	19.17621125
 3.31652716	12.41513841	22.46232533
 2.93560878	12.31321652	26.13180046
 3.25120113	12.06466182	29.28128173
 3.20515351	11.88639488	33.20008052
 3.04684774	16.09067092	19.00284789
 3.24194166	15.70875248	22.48694056
 3.32347900	15.99317216	26.20314552
 3.33670977	15.59529230	29.75416047
 2.89921505	15.63490716	33.52363445
 7.02704962	1.20669703	19.05015511
 6.85960941	0.84731372	22.66924607
 6.62106419	1.83564135	26.21333798
 6.85930175	1.55111595	29.29983893
 6.31807747	1.12630376	33.17085005
 6.98465600	5.17822597	18.83092694
 6.81691761	5.01424711	22.13607939
 6.56330533	4.72475051	26.23006855
 6.67809237	4.76831736	29.87088989
 6.76531246	4.95959399	33.25027223
 7.16056738	8.89017136	19.02477074
 6.95656011	8.81111462	22.44097952
 6.81821568	8.77987471	25.88074567
 6.96680050	8.75297118	29.17522522
 6.52194039	8.71894266	33.37257851
 7.17452866	12.08273858	18.83034990
 6.67375581	12.21840995	22.38713382
 6.77371620	12.34850465	26.28833702
 6.90644531	11.99206664	29.44849120
 6.39101895	11.97100916	32.99440974
 6.74394733	15.32875708	18.53996878
 6.69311150	16.47441635	22.49270952
 6.67893844	15.61019605	26.48881516
 6.44884508	15.82596252	29.33118474
 6.53992091	16.21220786	33.41652009
 10.72688952	1.35045483	19.35870887
 10.23929933	1.63710522	22.59184299
 10.37141312	1.32492629	26.04449362
 10.71381276	1.53418344	29.70127638
 10.40400888	1.63851866	33.47853879
 10.35516336	5.12813998	19.22986448
 10.46631592	4.91725796	22.34011529
 9.95286054	5.30501280	26.23795284
 10.25381833	5.25395571	29.65945014
 10.26699132	5.47067431	33.21777271
 10.54025729	8.87173901	18.93438695
 10.22747252	8.81640314	22.50319032
 10.43468159	8.27267894	25.86488048
 10.45025826	8.61442480	29.38743411
 10.12458919	8.52495469	33.52142288
 10.49698845	11.97620145	19.02390536
 10.51987291	12.14216096	22.80395601
 10.24074157	12.15293010	26.01728261
 9.86622698	12.39321556	29.36781906
 9.87007307	12.36167746	33.45459683
 10.71496666	15.57336945	19.33111293
 10.19228062	15.49615883	22.55367037
 10.22737646	15.99269136	25.98660972
 10.35602874	16.04259454	29.79704456
 10.48823859	16.06932511	32.78075878
 13.74569933	1.51764516	18.86977247
 13.86425555	1.53695255	22.54453576
 13.75819905	1.45673242	25.95334104
 13.46762564	1.73036365	29.80310223
 13.72627638	1.52914498	33.31152143
 13.79367947	5.31680115	18.78198518
 13.60377800	4.87710452	22.63097722
 13.55945149	5.22623491	26.34266317
 13.77646809	5.07848667	29.66810394
 13.76858361	5.12886101	33.08335111
 13.98242721	8.55177165	19.34226664
 14.15021353	8.40273500	22.95799230
 13.94819674	8.78136506	26.33958622
 14.21050129	8.34587031	29.65800772
 14.03040735	8.41047530	33.37584756
 13.86598632	12.20341015	18.98015588
 14.40924902	12.23292913	22.41280653
 13.72656490	12.07148881	26.61371758
 13.30541618	12.03918140	29.95483108
 13.69569990	12.39917716	33.19113838
 14.21232828	15.43337117	18.89361819
 13.78454503	15.80519357	22.68376507
 13.92069721	15.85778913	26.06372410
 13.58156663	15.92307688	29.70368042
 13.53377878	15.88201960	33.09998544
 1.23817735	17.64661372	18.37679751
 1.62849953	17.81206685	22.65145765
 1.43299224	17.57422513	26.56698739
 1.16035142	0.06158672	29.61752766
 1.28450365	17.45921217	33.41334727
 1.55340426	3.36316129	18.96111751
 1.51890477	3.08762615	22.48780594
 1.56611576	2.92805110	26.37458601
 1.66744148	3.13335645	29.56233577
 1.38840636	2.92616651	33.28584871
 1.46919387	6.77844699	19.41726604
 1.59278837	7.05553008	22.89972383
 1.35487779	6.88561876	26.03208995
 0.90773134	6.55004594	29.48474059
 1.16759160	7.13436574	33.40969328
 0.81446808	10.60544881	19.22822960
 0.97323821	10.36102856	22.19992472
 1.42437707	10.23074175	26.39237407
 1.31771490	10.41766250	29.82329432
 1.39544460	10.30401004	33.38632836
 1.86579480	14.11011787	18.87198404
 1.20438923	14.21213600	22.92010839
 1.45066510	14.48049803	26.04507066
 1.45233827	14.03213811	29.73291089
 1.55009656	13.45906807	33.60324874
 5.04446781	17.68497844	18.82765753
 4.71308720	17.75804693	22.90905055
 5.04127567	17.64966259	25.94430267
 4.98718975	17.69360059	29.77069893
 4.61701154	17.47201275	33.23258005
 5.35353152	3.21607648	19.02477074
 5.03238146	3.15685605	22.32646167
 4.76567310	3.12210650	26.50439201
 5.08166933	3.47567917	29.70137262
 4.52681074	3.06759755	33.41892412
 5.34592573	6.82736943	18.93756013
 5.20779290	6.91896453	22.57492031
 5.06555408	6.88013796	26.04420528
 5.37372361	6.67207317	29.85185152
 4.55835831	7.15585590	33.36844371
 5.15465894	10.29997165	19.10390422
 4.82858580	10.63967910	22.42828715
 4.88320064	10.54275720	26.28766375
 5.13343797	10.28526037	29.41772243
 4.54276233	10.12997376	33.20729191
 5.08554423	13.86637089	18.92044499
 5.46852052	14.38232618	22.56722776
 4.94802672	14.05963782	25.90536090
 5.04541977	13.97088892	29.73041062
 5.09619800	14.11434872	33.16085006
 8.94882459	17.19796529	18.73592791
 8.79431679	17.74815372	22.49444028
 8.49395501	17.45036607	26.26833704
 8.29332286	17.70279459	29.43849120
 8.58729053	17.75522094	32.97700626
 8.59180006	3.27765265	19.26380607
 8.62603034	3.50248647	22.71712998
 8.43715757	3.39920891	25.89507257
 8.74485578	3.41944912	29.65935390
 8.67496244	3.92825062	33.26632953
 8.27386164	6.93139700	18.99832852
 8.79167254	6.52307497	22.62001561
 8.52443543	6.89709928	25.98670595
 8.16530522	6.90414735	29.73233385
 8.30195735	6.95167566	33.20152294
 8.96721849	10.42016259	18.94861761
 8.57921358	10.59025672	22.72549508
 8.82480688	10.60650648	25.87343806
 8.34303376	10.34920193	29.40935697
 8.28847669	10.35016336	33.40632799
 8.88157533	13.95521602	18.80804247
 8.25490984	14.04156106	22.69953403
 8.59284807	14.16848258	26.01959005
 8.16218016	14.43896012	29.54685516
 8.23227544	13.96098516	33.28469499
 12.32004351	17.16988872	19.06803941
 12.14264176	17.44144969	22.47847886
 11.97860530	17.59796049	26.26997157
 12.02062401	17.80112545	29.74569913
 11.76043480	17.69738515	33.37315519
 12.41494612	3.03697296	18.95669438
 12.08225777	3.20438437	22.62905399
 12.19216038	3.36505554	26.38448941
 11.91293298	3.33850778	29.92319693
 12.06398891	3.41690109	33.23815691
 12.28398622	7.03151121	19.11140430
 12.36475441	6.80924456	22.36713419
 11.96850925	7.17758629	25.98276362
 12.22725605	6.83162890	29.91665846
 12.06514263	6.99801162	33.71103601
 12.13908401	10.28006808	18.91986795
 12.59907844	10.28256799	22.72962988
 12.13158410	10.10882024	25.84430382
 11.80293432	10.60131420	29.84867869
 12.22764062	10.10391629	33.46450023
 12.19408343	13.84185190	18.64948681
 12.47340688	13.87694774	22.49174791
 12.00754725	14.16040581	26.02276323
 11.81370346	13.98915779	29.76867947
 12.13475728	13.98992711	32.97316016
 15.64202249	0.04409273	19.20448011
 15.51567783	17.70987826	22.66001522
 15.51846626	17.71282051	26.27689461
 15.49673587	17.31017551	29.81771746
 15.44144794	17.28190648	33.27777194
 15.76404024	3.44523721	19.08236594
 15.48413974	2.82383125	22.49972880
 15.17770115	3.13729860	26.65919781
 15.46577464	3.20065364	29.84079404
 15.56538891	3.08813576	33.39728961
 15.72904062	6.84940765	19.32370943
 15.95163408	6.24822259	22.95356953
 15.69404119	6.46858534	26.12728109
 15.74346357	6.74774530	29.38147268
 15.84846241	6.75661071	33.73315097
 15.86105837	10.38304764	18.90861836
 15.94423041	10.38900907	22.90539692
 15.85144313	10.19881909	26.05516653
 15.48250521	10.45708525	29.89608180
 15.60067687	10.53121891	33.07988958
 15.84182771	13.85521718	19.03428992
 15.85413532	14.05944553	22.55001674
 15.71182943	14.00934988	26.20160722
 15.55836964	14.44396012	29.43810663
 15.28000762	14.06415701	33.13460066
 1.36746426	1.09978481	34.92361759
 1.20506233	1.25658091	20.59080927
 1.52348155	1.47918402	24.38393686
 0.91231403	1.52698153	28.08927681
 0.97056515	1.50996244	31.50558182
 1.68512382	5.19686027	35.00217403
 1.81541080	5.01719903	21.10580332
 1.16989940	4.37863947	24.81056622
 1.09537133	4.89049860	27.79581874
 1.37132002	5.02287194	31.47529350
 1.25934054	8.33807240	35.52380028
 1.49779918	8.50670497	20.69859654
 1.68755647	9.11726487	24.20509287
 1.26760977	8.59311727	27.92927873
 1.32049367	8.44662864	31.24337332
 1.68456610	12.15033395	35.61600998
 1.36661802	12.66388539	21.19676379
 1.49897222	12.53446396	24.42153244
 1.30271509	12.31879337	28.37254242
 1.60572096	11.96524002	31.29106512
 1.37926209	15.87230813	35.32854697
 1.54260632	15.97894150	20.90128661
 1.33153201	15.77048247	24.25922691
 1.27684025	15.89846165	27.99235491
 1.23534081	16.09124778	31.46077450
 5.08339044	1.75302685	34.85486832
 5.40140595	1.27168661	20.99330457
 5.20225450	1.71379657	24.51989676
 5.06157348	1.54104871	28.10235339
 4.63161712	1.21812943	31.51692764
 4.79200943	5.15424538	34.64640928
 5.12553418	5.10646719	20.96945885
 5.40927111	4.72497178	24.07067127
 5.01711245	5.61344169	27.97956667
 4.69205870	5.01361247	31.70981018
 4.83567233	8.40282157	35.11928981
 5.30861849	8.60709787	21.00859272
 5.11395743	8.81554723	24.38220610
 4.91678681	8.22168910	28.02283534
 4.89849845	8.49198384	31.58298454
 5.11734204	11.97062459	34.88919484
 5.08580395	12.09360377	20.74167310
 5.00861248	12.10321919	24.43528230
 5.13024565	12.23523676	27.98100873
 5.13421678	12.04110444	30.97587666
 4.87364300	16.09432473	34.73688894
 5.02915069	16.06384430	20.86292153
 5.17924518	15.99259512	24.23480379
 4.69401055	15.82961633	27.97427815
 4.91970975	15.76288652	31.67346420
 8.17587241	1.56146188	34.84986814
 8.39242735	1.73607520	20.97763185
 8.54193533	1.75809410	23.97163404
 8.41251372	1.82947798	27.61053251
 8.59123268	1.63923022	31.38865994
 8.42823474	5.42843433	35.53828386
 8.62560731	5.10935167	20.81003745
 8.16570893	5.22825420	24.58393420
 8.66338570	4.89973892	27.80533792
 8.23488124	5.34436811	31.41298682
 8.70640448	8.43164815	35.35561882
 8.77102862	8.57145414	20.95282415
 8.83866244	8.59766526	23.98115323
 8.64466482	8.82196067	27.51649510
 7.91824089	8.74152894	31.38865994
 8.17121853	12.26139028	34.76833098
 8.70484669	12.08177715	20.96570863
 8.41686943	12.25292894	24.36461015
 8.50632022	12.33619704	27.70495450
 8.48289753	12.22023695	31.57538858
 8.63850145	16.00365278	35.00885453
 8.60089603	15.84269309	20.88792133
 8.08300804	16.12442058	24.17672778
 8.77381704	16.02259492	28.22177518
 8.37749497	15.89086570	31.32587245
 11.99677811	1.33494542	35.13988687
 12.17042981	0.90356882	20.72225016
 12.27273628	1.62577836	24.46941635
 12.34985084	1.47742446	27.71985808
 11.60562900	1.72786374	31.75221347
 11.67572429	4.97010340	35.35027557
 12.21023713	5.00269916	20.61100136
 11.90091388	5.11204405	24.63729909
 11.61418658	5.42826136	27.95302821
 11.84822226	5.16951439	31.58240786
 11.87274108	8.88500806	35.32556339
 12.32465875	8.85309487	20.93042085
 12.07870020	8.48968588	24.05028707
 11.95937464	8.50491643	27.46659208
 11.97120145	8.49821465	31.55827344
 11.89572160	12.12091120	34.78342667
 12.43196521	12.42504217	20.96792019
 12.34062017	12.26754400	24.55701153
 11.71745448	12.14129558	27.76139598
 11.37418946	11.96947069	31.86548136
 12.55071373	16.14317025	35.47115481
 12.24292895	15.41394841	21.04484247
 12.25965952	15.76923252	24.30489926
 11.62630172	15.58231177	28.00447024
 11.96062478	15.84567398	31.18423946
 15.67798353	1.28877295	34.95611712
 15.40240994	1.59591343	20.71167348
 15.58567706	1.73088291	24.67210642
 15.26808476	1.30500340	28.13542996
 15.56904254	1.31008031	31.59221539
 15.39817927	5.00279540	35.42013063
 15.69538720	4.83672999	20.83897958
 15.58000397	4.31608237	24.42230159
 15.34529537	4.88913327	27.76956898
 15.33048784	5.25002304	31.28443042
 15.83173184	8.75231740	34.95977075
 16.08740168	8.54206984	21.00916976
 15.81711661	8.53640641	24.61460709
 15.89451951	8.67199138	27.77139598
 15.78471313	8.14562273	31.55933093
 15.36577580	12.51302192	35.03891961
 15.86384679	12.33465856	20.65061640
 15.95653802	12.65475095	24.39057121
 15.44337098	12.22764062	28.20831367
 15.43414050	12.30590890	31.17029714
 15.55981206	15.69663733	35.04652058
 15.88384660	15.65183001	20.54734850
 15.84115479	15.72807919	24.44883968
 15.92461518	15.68644505	27.73043475
 15.38933318	15.77096328	31.53135077
 16.83191704	17.10822544	1.55006459
 17.17606444	16.92526562	6.47081122
 0.17311652	17.67093077	8.16535643
 17.55854972	16.34461626	12.97939187
 0.48772310	17.26284092	16.75464090
 16.57990369	2.86682302	1.00995984
 0.40512488	3.15116758	6.09925748
 0.43359568	2.96709590	9.99643893
 17.19711833	2.87327063	13.44464031
 17.48900197	3.78031331	17.25586434
 16.95628857	6.97251133	1.89402525
 17.12074663	7.25474396	5.62080581
 17.59392980	7.24895049	9.41962080
 17.38817799	5.02920470	12.32370857
 16.24949220	6.07296265	17.31445264
 17.37460701	10.19565718	1.81937429
 17.48926616	10.22275550	6.58210079
 17.05842081	9.39719434	10.43262683
 16.28172986	10.37216939	13.50453688
 16.74623060	10.92917802	17.85828578
 17.76071462	15.04063154	2.31330943
 15.50858969	14.68200056	5.78916972
 16.39787830	13.11357449	9.21535631
 16.96581956	13.52901811	12.20886804
 16.93479679	13.33045372	17.25371538
 3.78542456	1.01933215	0.00697492
 4.21191314	16.69782761	3.74688930
 2.60761474	16.55598249	6.41135396
 4.69351382	16.35994090	8.73600742
 3.30460877	15.56979416	12.98247562
 2.81365453	16.90956750	16.43226538
 2.35029374	1.88627881	2.29453686
 2.26880291	3.25145888	5.16575198
 3.59636308	2.18281740	8.45119564
 2.02088214	2.49606348	13.78794666
 3.23598488	3.87012989	17.04431154
 3.08794454	7.18422314	1.88612950
 2.86958891	6.45244039	5.07203868
 3.70989534	6.81116474	9.54118869
 3.04030784	5.71231347	13.21907114
 3.46486210	9.01647362	1.41368613
 2.12940582	10.43047722	7.12098170
 2.90943272	10.65651377	9.26893584
 1.93489681	10.38777432	14.39775013
 3.43154996	10.48196396	16.45020655
 3.14369218	14.95092711	2.08779607
 1.56566948	14.05986284	6.18059895
 2.60901620	13.19795267	9.77030882
 2.70173891	13.28793757	12.60889383
 3.81062595	14.54725699	16.77183403
 6.85568050	17.68538627	1.19785330
 7.65938570	16.98731133	5.99975088
 6.73901816	17.85723244	9.43429113
 7.50973802	0.26803970	11.66512826
 6.44229265	17.39734998	17.87033993
 7.51355049	1.64572146	2.06503359
 5.89419845	4.43635183	6.10276157
 6.18070145	2.84674237	10.33432547
 6.59020224	2.33866011	13.89727402
 6.89104841	1.44045708	16.64120200
 7.95333584	7.00736517	1.19151803
 7.31925630	6.56067448	6.10352785
 6.51613994	6.60233098	10.22808186
 6.69770725	7.32362935	14.23833767
 7.11263714	6.83367501	16.53215512
 5.29309459	9.91794732	4.78630213
 7.14455695	8.73909075	6.03638020
 7.31143514	8.62340934	8.70076115
 7.29101803	10.69660049	13.49229598
 5.73325378	11.13232116	17.27044129
 6.52199870	13.54368862	2.48353288
 6.81579018	14.29870105	5.97746492
 7.76944178	13.78374136	8.89730733
 7.62334506	14.07322508	11.96096604
 5.75499776	13.25009354	16.07783966
 11.04672810	17.63100843	2.22779131
 11.57336791	16.85789402	6.31053946
 10.20201123	17.73906025	8.08689300
 10.44561494	17.23212957	12.95864778
 10.36198427	16.30490338	17.09972272
 11.14876697	3.81693332	3.09941012
 10.19715236	3.19400141	5.30427975
 9.04214223	2.87978352	9.97569484
 9.78881030	3.58001082	12.19139443
 10.51541615	3.20308397	16.94077748
 9.85599517	7.19575391	1.65149620
 9.58921776	6.48439758	5.86152182
 10.37590709	4.97891426	9.67929648
 9.06043828	6.89664566	13.40006839
 10.78808040	6.48521055	15.51073927
 9.49970025	10.98122516	2.91587111
 10.65744820	9.98083372	6.23647734
 10.98524315	8.55850455	10.35264013
 9.68611730	10.11838056	12.70579355
 10.88451255	14.68480384	3.35430134
 11.30014308	13.66067811	5.28418032
 11.83911735	13.72281718	8.93067546
 10.55223238	13.22252800	13.18916955
 11.22604358	14.29972885	16.16530140
 13.57200165	0.72430824	2.87165406
 15.31525783	0.57520362	6.43905043
 13.95343231	16.71324544	10.99925965
 14.33402210	1.30043412	12.53143029
 13.98314699	17.47713080	16.85471737
 13.08227144	4.72086435	1.91157362
 15.58951046	2.80897311	6.33558183
 13.22916235	3.79072274	9.22999837
 14.51894414	3.62997429	13.87783819
 14.55379797	1.74050906	17.25474317
 12.38911779	7.56828893	1.90758371
 13.79243148	6.68742875	6.19153158
 14.32374342	5.93728466	9.82768258
 14.58510102	5.94145219	12.76083089
 13.89325564	6.48334170	17.54684325
 13.80186928	9.69835819	1.24254686
 12.74774859	9.27428993	5.37688442
 13.24953278	10.30965665	10.03540431
 14.15367881	10.50635237	13.67133101
 12.86828886	10.44318550	16.05746906
 14.38719077	12.51348913	1.01286579
 13.81952980	13.00938648	5.26721149
 13.90241297	12.81783009	9.78600730
 13.93904228	13.44211695	12.86800893
 13.01134888	13.53041975	17.30800503
 0.78132658	0.79720340	3.50150081
 17.47732183	1.75624475	6.88379769
 0.61621993	1.45287560	11.73250023
 0.13769817	1.43128115	14.90177685
 16.79444668	5.11775989	0.15185013
 17.33061767	5.11197572	4.14157936
 17.66317883	5.54037983	8.06935393
 1.81214193	3.79694603	11.89807982
 16.53252850	4.44314502	15.84432752
 16.51421384	8.69820984	0.75552725
 17.59547900	8.48489069	3.73618992
 0.18449865	8.24225897	7.50970103
 17.00927013	8.23284926	12.09346728
 16.50972864	8.70508709	15.30993200
 17.43536305	11.59542027	3.54494191
 0.51790016	11.95563963	7.22083387
 17.29838019	11.58495485	10.93618633
 16.89527084	11.77688490	15.31329586
 17.87494484	16.69904233	4.28528403
 16.14745351	15.35412983	8.57075481
 16.74482897	15.37749027	10.91637667
 17.07234363	15.06838381	16.27247944
 4.61133148	2.22079236	4.52254282
 3.60670722	0.97146165	6.65349057
 2.31424379	17.83220689	11.15614931
 2.53225366	1.22650258	15.42832313
 3.10020422	5.09205390	1.10314977
 1.71290633	4.21803358	3.18206880
 3.02367511	4.78251743	7.69596854
 3.50853698	5.06431093	11.17147359
 2.74170418	6.70512666	15.54381762
 2.16001754	8.34911933	3.44458532
 2.60851178	8.55828025	8.20846125
 3.14945757	7.49432949	11.43479360
 3.36411271	8.39785878	13.94530317
 2.96625484	12.26540040	0.30957368
 2.79668553	11.43563433	4.31159747
 2.79134997	12.39818157	7.55730017
 2.70634557	11.35359204	12.27054008
 3.10569862	12.93743612	14.71984518
 2.74123696	16.11549632	0.08776511
 1.86939387	15.38804924	4.09035449
 3.81189683	14.48922946	8.14541583
 2.37051463	15.24442882	10.62689312
 2.98906418	15.20929451	14.85570992
 7.17476674	1.04159933	5.11864759
 7.97536011	0.84104267	7.29746566
 5.56908531	0.88322987	11.08485290
 6.68976481	17.63446584	15.13192477
 7.35289542	3.94091240	0.76626097
 6.16660101	5.92729576	3.79676870
 6.90361646	4.70650240	7.99393668
 5.53052168	4.03755954	11.95489264
 7.03168812	4.75311131	15.40739230
 7.17326225	9.13899508	0.36130047
 6.66897386	8.07076464	4.24586075
 5.11134967	6.72054449	8.42356500
 6.94335724	8.58093987	11.06195949
 5.53781964	8.69478051	15.45261818
 5.88591026	12.18233031	0.29198131
 6.62114093	10.92469264	6.48299630
 7.55659002	11.37200025	8.66733685
 7.11866404	12.52928098	11.06065123
 7.14703307	12.40173234	14.83917074
 6.59946224	15.70388359	2.19480596
 6.93041553	15.94524461	4.71172594
 6.55193768	15.74789493	8.62190527
 8.16079605	15.72901970	10.74285446
 5.98668755	0.82353812	13.37082110
 10.99925953	1.32719581	3.59529818
 9.64603058	2.31984086	7.75892989
 10.11454949	1.25038641	11.12961157
 10.41319054	1.39972571	15.56157169
 10.41431188	1.34897717	17.85286633
 10.06558573	3.64224327	0.38405293
 10.62876150	5.65959341	3.57122744
 9.41700401	4.38755639	7.73461624
 9.64304056	6.33740382	10.77098058
 10.45112793	2.92858843	14.30328021
 9.40121233	9.42018112	0.80617186
 11.88602533	7.76649844	4.89075166
 9.99690586	6.89205760	8.36342553
 11.00664138	7.47939748	12.38668852
 10.59353382	8.22645782	14.65415532
 9.77759721	13.70599754	1.87473861
 9.73601548	11.88555812	5.32643478
 11.02458237	12.16924837	7.08242737
 10.72276421	11.38863280	11.87210266
 9.20511458	12.29193796	14.94102269
 11.31640215	12.14046829	17.57235283
 10.23406197	15.39487051	0.68737326
 10.70687916	16.65633925	4.34025591
 10.74126578	15.06081504	7.34641063
 10.37843007	14.92709927	11.58430087
 10.42916913	15.63707257	14.70620265
 14.15909844	1.45758510	0.64606646
 14.43531347	1.51781777	4.89416238
 13.89026544	2.00480087	7.83908437
 14.64144663	1.73080976	10.20687056
 14.14508207	1.23991169	15.05511555
 14.18741148	4.48750211	5.02201904
 13.71646313	4.20326971	7.20544412
 15.12977521	3.75767229	11.92228114
 14.31514686	4.81418503	15.69239082
 13.54929517	9.20401202	3.35552554
 13.84008697	7.83931776	9.12314731
 14.17844089	8.75858273	11.34350079
 14.16040671	8.33358935	15.70864953
 14.15190333	10.84853737	3.90305917
 13.08703693	11.20567316	7.88759040
 13.12721702	11.65970849	12.18120949
 13.66366831	12.24549719	14.93382741
 13.67721747	14.84141284	1.01840723
 14.55286354	15.28330064	4.08427142
 14.19002783	14.61089108	8.27197388
 14.78217058	15.37786412	12.98640006
 14.30215828	16.44347802	14.79002006
 2.88728700	0.18121797	4.53443813
 0.93151338	15.79583072	7.79060661
 0.25105836	17.20932971	10.26648665
 1.20185266	16.85565133	14.98138971
 17.35202948	2.60361535	2.89497748
 1.40932217	1.28448343	8.34935335
 2.08318005	1.95852824	10.49420514
 0.79015318	3.49498782	15.63679254
 0.85533468	6.74644670	3.95377927
 1.96362089	6.43021060	8.13818334
 0.84519052	6.42090373	11.48216880
 0.00790827	5.42248399	14.92167988
 0.27652430	7.70041615	17.52329589
 1.87609368	10.36693668	0.57989543
 1.71163544	10.93786813	2.39169809
 0.53234081	10.00933368	8.85368844
 1.04899996	9.09071336	12.23138760
 0.42974136	10.02166794	16.53935004
 1.90307037	9.34963222	17.83464505
 1.39538056	14.02827950	1.05301816
 16.95750328	14.13891494	3.81624209
 0.80974802	13.11049093	8.57048400
 0.80540573	13.27971466	11.07326596
 0.19416988	13.88933102	14.44176112
 4.68792605	15.95131837	1.61687597
 5.38520985	0.32293323	5.30357893
 5.03619411	0.65732712	7.85892230
 4.30059907	16.60223634	10.64838454
 4.16440718	17.44975630	14.33747973
 3.94748127	2.76449455	1.79199585
 6.71158356	3.37276544	4.12152679
 5.64040032	3.21889442	8.17515823
 3.98475542	2.61349210	11.02149911
 4.99383679	2.25114221	15.82797509
 5.07245906	4.48605361	16.87807800
 5.56679593	6.65173386	1.75936575
 4.56287250	7.82230207	3.67861117
 5.15133353	6.89182400	5.27944272
 5.33414382	6.23538373	12.15308337
 5.02296280	6.71847960	15.63688627
 4.47710199	11.16268979	1.92197393
 4.04838950	9.76273996	3.24751575
 4.86268157	9.90365066	8.31868547
 3.62107865	9.68004353	12.20802734
 4.23503067	10.82050480	14.22413456
 5.28071364	12.94416402	5.16572371
 6.06517888	13.14441034	8.32175991
 4.31589563	12.76690430	9.79423003
 5.53818400	14.56230116	13.97258824
 8.99052473	17.47525175	1.56769739
 8.60847732	17.84036379	3.96032955
 9.74040713	0.87981468	5.60434105
 9.59762758	17.08991079	10.35292060
 8.62561465	16.44936504	15.57820460
 8.74489352	2.24373228	3.91992533
 7.55103016	2.70543922	8.27974799
 7.74575418	2.55871645	12.02161029
 8.53469550	2.14357173	15.60717141
 8.71449680	6.74159713	3.81869012
 8.16003924	6.17431931	8.66707498
 7.33577687	6.51280399	11.96769411
 8.61949420	6.77748824	15.16509685
 7.82330178	12.67420967	1.39017598
 8.97228484	8.83135554	4.51937536
 9.33131757	9.27419638	8.64904080
 8.65040481	10.43916733	11.14344120
 9.00635397	9.72284016	14.79768220
 7.89340207	15.22387147	1.09416076
 8.88498194	13.56209664	3.68570343
 9.21981317	13.39530252	6.98034181
 10.10483158	14.93672381	9.18590332
 8.22006638	14.24983085	14.20086731
 12.38865057	0.01915982	0.25550082
 12.83334165	17.41808191	4.97112114
 13.30391616	17.84898808	7.22952417
 12.03029989	1.06360500	12.01432163
 12.23708736	2.50724850	14.51735580
 12.35996370	2.74878695	1.10866295
 12.45648939	2.80267504	4.94398562
 11.92312186	2.96789939	7.12793372
 11.43012115	2.66196987	9.21041301
 12.57422657	0.92449124	16.51430767
 13.30064567	6.68923213	4.04441813
 11.78791108	4.88119245	8.43592717
 12.76849268	7.15767610	11.40638701
 11.71979179	8.25532214	16.86079114
 11.10774582	10.85199477	0.77032100
 11.10961467	9.97877813	4.06814329
 12.24633806	9.52380838	7.96208216
 11.91153492	9.77535451	12.77325853
 11.22931407	10.04605636	14.97849270
 11.84406976	13.61862917	1.33424142
 13.14786774	13.26663272	2.90076147
 12.52984156	13.41427131	7.24358705
 12.21568914	13.47491520	11.23622902