POSCAR file written by Ovito 3.7.5
1
50.01216332 0.0 0.0
0.0 50.01216332 0.0
0.0 0.0 100.0243266549
Mg O 
4096 4096 
Direct
0.7675872718 0.5669120893 0.8042523523
0.6491200909 -0.0719530962 0.8368774157
0.7906036727 -0.0934564652 -0.1230880568
-0.1189428652 0.8216621172 -0.0945485995
0.5890407062 -0.1229770838 0.1008554652
0.4116958482 0.1081184984 0.239617709
0.7203647595 0.0331009477 0.3535829851
0.8142299252 0.6447971425 0.2349218514
0.7180473232 0.0096949815 0.3094687166
0.5670360592 0.6907139725 0.429520512
-0.0353865916 0.8190307573 0.5310948024
-0.1527080513 0.5731365751 0.5624251808
-0.0985444275 0.7915794353 0.5927618009
-0.1468002884 -0.1295276903 0.6876387205
-0.1415001778 0.6089098727 0.7468113258
0.8154376314 0.8034925373 0.7052664323
0.0501573984 0.0755850127 -0.1581345312
-0.0863385967 -0.1388134314 -0.1165376503
0.090501784 0.0320438048 -0.0016379016
0.8206083736 -0.0719331011 0.0104449591
-0.1332745788 -0.016385274 0.1513491818
0.7528008688 0.0715166024 0.1030939207
-0.1476740759 0.0798065857 0.1580805443
0.6786249134 0.0503067621 0.200722171
0.1262460886 0.748405938 0.2501861381
0.5508340006 -0.052378858 0.4923492279
-0.1554965729 0.0474608544 0.4295615021
0.6655600916 -0.0423660938 0.4945756863
0.8004192849 -0.0912805945 0.6066024339
-0.0647888391 -0.0598670364 0.6219237068
0.7588873882 0.7527988693 0.7206156983
-0.1528842084 0.7140662917 0.7883372239
-0.1103503555 -0.0197619726 0.7651208717
0.8183089329 -0.035685319 -0.0924139188
0.1776269893 0.0893616613 -0.1113649086
-0.0620782984 0.2359585992 0.0431348067
0.0544401565 0.2673349664 0.1239648435
-0.1570597926 0.2763567717 0.060789312
0.7665775174 0.0874035377 0.3238362215
0.6426456659 -0.1498787395 0.2156585375
0.6005878971 0.2174590995 0.3879726192
0.8278386147 0.1676046274 0.4554252103
0.4711753789 0.1399665508 0.5007801769
0.0743623101 -0.1086287743 0.3582058605
0.7596592004 -0.0980163559 0.5686086765
-0.0857071503 0.1432103617 0.799168589
0.5666781462 -0.1069169907 0.6845244781
-0.032688648 0.1685304022 -0.0969025269
0.7353891045 0.2624681503 -0.1515521324
-0.0214065925 0.564290727 -0.0551831758
0.7672193613 0.3986970104 0.023969669
-0.1038193442 0.2206123324 0.0076462399
0.7795003738 0.0769544796 0.0264931551
-0.0337295947 0.2431588476 0.1237229024
0.07428073 0.1640772855 0.1524359174
0.8076295309 0.155985454 0.190749597
0.6446171863 0.3773382063 0.4341873767
0.5067087348 0.1475876969 0.4795323458
-0.0494105801 0.3082990012 0.4723510928
0.136890899 0.3105104632 0.5602337139
0.0129730041 -0.002786982 0.5237055999
0.7292725925 0.3294858472 0.6201051492
0.7862427336 0.2021608211 0.6672546793
0.7292845896 0.1889796276 0.753062805
0.7287727141 0.0933326953 0.7150500522
-0.098718785 0.3353644171 -0.1444538592
-0.1288550539 0.5232067214 -0.039635458
3.3445263891e-04 0.5416522342 9.2549285855e-04
-0.1296682561 0.2668410865 0.0831601699
0.7753893738 0.2226938261 0.146008481
-0.0112333273 0.3397513499 0.3123060264
-0.1195497176 0.3046638855 0.2446404872
-0.0984840421 0.5038894206 0.2563346424
-0.1014837124 0.1043898055 0.4931990212
0.6720385156 0.2128482212 0.321671748
0.6605073208 0.2066097388 0.5742203114
-0.0828364487 0.2698843462 0.5740583508
0.8165593585 0.2185508339 0.5870561889
0.7306182651 0.2732535266 0.6137396977
0.5768176796 0.4981768103 0.7925122083
0.789180019 0.4580085819 0.7950835828
-0.1052324005 0.6243761103 -0.0789370972
0.782253704 0.3850783234 -0.0365581066
-0.0802720725 0.5442316067 -0.0030162862
-0.1292599554 0.4386732855 0.2109096927
0.7421054707 0.6575140489 0.2058429253
0.62610369 0.2479656783 0.2264539113
0.0329989725 0.3424426952 0.2093690675
0.0203966382 0.4163527154 0.3388985573
0.0221756054 0.6999737199 0.3911378492
-0.0240305542 0.3655090839 0.4601050718
0.6725124003 0.4588083873 0.6092437914
0.7477460985 0.5036394814 0.7107351019
0.5131811603 0.2032745501 0.5552569246
0.7024591153 0.2265748819 0.7867446114
0.0551475844 0.4267761797 0.7503034763
-0.1603685877 0.8337751705 -0.0724701704
-0.0189774634 0.4524979225 0.0281239584
-0.0153920356 0.6837636633 -0.0425020607
0.0219234668 0.586295374 -0.0293453613
-0.0594313424 0.7506673878 0.1981138055
-0.0501597978 0.4690538949 0.2557847761
0.0029220692 0.3742349612 0.240567478
0.6699030351 0.7811859637 0.2970617348
-0.1505569745 0.7098593151 0.2344829581
-0.1535432481 0.6314963781 0.460174055
0.5033415539 0.5104818169 0.3362861928
0.7454466579 0.4171685169 0.5014010259
0.4301513586 0.3883775208 0.6925305305
0.6254678447 0.090698736 0.6925665217
0.7326137797 0.6215807903 0.7474411726
0.7402279274 0.5873731119 -0.1275069818
-0.0993336355 0.6647822808 -0.1521139958
0.0876936671 0.8088392366 -0.1647349255
0.6186894936 0.7574017496 -0.1403388602
-0.1493242744 -0.1425051333 0.0072865374
-0.1197388716 0.8119384826 0.1671243442
0.7967501775 0.7862807243 0.1417525164
-0.0936434197 -0.0459532211 0.2700802985
0.8339751219 0.6294548748 0.2126072798
-0.1496633919 0.6770992845 0.3110913219
-0.0852596592 0.651783443 0.4863246935
0.8231117646 -0.1266747843 0.4447728017
0.7646619834 0.7486178864 0.4925981673
-0.1611160059 0.5959910154 0.6817151615
-0.0617095881 0.5080943977 0.5770886136
-0.1510816469 0.6813342543 0.6429355953
0.7600211124 0.4373556061 0.7115768971
-0.1601194483 -0.0026861066 -0.0486928547
0.0825811108 0.6847254293 -0.0984402528
-0.0910604481 0.808525313 -0.0465021876
0.00933125 -0.146160844 0.0358771723
0.7102112295 -0.0824435443 0.1472151875
0.1225137965 -0.0270984079 0.1193879569
-0.0174029265 0.0882609291 0.2898914791
0.1112241429 0.7779647473 0.2138979658
-0.1332101944 0.748853829 0.4201377945
-0.113151874 0.7888161075 0.3396403769
0.8050981467 -0.1060865927 0.3586667484
0.0120604661 0.8350508602 0.6503377946
-0.1068208141 -0.1002592103 0.6282181755
-0.1035903999 -0.051503271 0.6381317639
0.2030506046 0.7607229417 0.7226612007
0.7480820168 0.7544564661 0.8140999567
0.07284188 -0.1083478426 0.7475041572
-0.0182789933 -0.1550652778 -0.0672386431
-0.0706034246 0.090480989 0.0105074439
-0.1027154128 0.1605425454 0.067378709
-0.0583785984 -0.0664146435 0.1136333568
0.241221319 0.172662397 0.0887183178
0.0908339032 -0.1479066193 0.1688409267
0.0686592975 0.0259092971 0.287368093
0.0157819408 0.1435122883 0.2692904906
0.8232077412 -0.0659889471 0.4226691787
-0.1324561779 -0.0061575621 0.4042586574
-0.1145239402 -0.1340107997 0.4442549276
-0.0696866476 0.76077093 0.5610005273
0.0092628467 0.091027856 0.7325248012
-0.0918752498 0.8135280959 0.7768290235
0.56119548 0.813240166 0.7297064868
-0.1617536508 0.7872384913 -0.1282657972
0.0939305499 -0.1196952822 -0.1507973161
0.1360487039 -0.0932143241 -0.1463204051
-0.102509063 0.2016649417 -0.0994951961
0.1512100157 0.7778267809 0.0449840569
0.8356427162 0.0901732639 0.1030859226
-0.0709481407 0.2862483654 0.2220129917
0.0451432182 0.1537751917 0.3532450673
-0.0523080752 0.1502526486 0.3487701559
0.7617147004 0.0409944274 0.3009187965
0.7771009574 0.1029643522 0.3594495579
-0.0378911823 -0.0538772935 0.5257241089
-0.0011741944 0.107088349 0.4853559291
0.8247313706 0.1573879128 0.640647152
-0.056900758 -0.0575589978 0.6640154672
-0.0557140466 0.0671166728 0.7049705043
0.0730570277 0.4557271369 0.7882212521
0.0313473742 0.3575590179 -0.0883091173
0.044280828 0.2926408103 -0.0758800409
0.0829960099 0.3734331563 0.0912986901
-0.0989347325 0.3867359201 0.0994379101
-0.0627579331 0.4547513743 0.2952771689
-0.1576320534 0.2771925684 0.2258440597
0.0340699119 0.1778181428 0.3149033945
0.8180349996 0.1750414183 0.4068220338
-0.0792243274 0.1240708177 0.419063056
0.0588096936 -0.1634332422 0.4561280393
0.0411635863 0.2919709733 0.4880092837
-0.0033991531 0.1838678711 0.4753913532
0.2273286986 0.0589102691 0.6160941249
0.7653238224 0.138966794 0.699298884
-0.0377438182 0.2843868182 0.7859877955
-0.1435390818 0.3036881229 -0.1278279037
0.1786281458 0.4289256568 0.7979438869
0.0649494 0.3552715744 -0.0636232226
-0.1017306524 0.8044443057 0.0150562373
-0.0698254138 0.444187944 0.1581945166
0.832963368 0.4621715692 0.1920932701
0.2564256203 0.5370893442 0.3303686324
0.0723192072 0.3594185655 0.2476597527
0.7920373239 0.2872741159 0.3225615316
0.7806560926 0.3006328661 0.3494499905
-0.0426718194 0.2399936176 0.3955937653
-0.1002866036 0.3099985878 0.556870532
-0.0782567628 0.3902850568 0.6470315989
0.0168696362 0.3207499723 0.5566585836
-0.1241220053 0.7695807869 0.7987316953
0.0565096531 0.1496607926 0.7241618356
0.0607650179 0.6636105658 0.8325514681
0.134905582 0.4461954556 -0.150378418
-0.0455505191 0.4429862363 0.0611878151
0.2114525607 0.8200865005 -0.0494167786
0.6030293032 -0.152187178 0.262095241
2.2132415927e-04 0.7275410137 0.1643400216
0.061035952 0.4403908677 0.2720608167
0.0607578197 0.3952098587 0.309931604
-0.026945845 0.3013326959 0.4342203687
0.0901764631 0.3063534745 0.4314790356
0.1141626281 0.1602362199 0.6336318586
-0.0417350473 0.6382867263 0.537361278
-0.1262916775 0.4379494616 0.5616633661
-0.1361120885 0.6268575066 0.5342070453
0.7677432339 0.506000907 0.6546117549
-0.0027714058 0.4847680722 0.6545877607
-0.1508241096 0.4837543188 0.7678482082
0.1020023862 0.5209732647 0.7911945288
-0.0752113036 0.7528548557 -0.0986089118
0.3039080694 0.6364071835 -0.0926649577
0.1587471821 -0.042920159 0.1450087242
-0.0037843194 0.5464630639 0.1812709029
0.2315356751 0.4790194707 0.3293678758
0.147476124 0.6730682651 0.3085089501
0.7720941754 0.7618906576 0.4414286152
-0.122976484 0.5882488988 0.4446618287
-0.0557406402 -0.1175468048 0.4471252294
-0.002449824 0.4448977713 0.6183155845
-0.0756054077 0.6393564661 0.5885088355
-0.1294339131 0.5681457892 0.7902587565
-0.0371865538 0.4823826525 0.6322321991
0.0709153487 0.5855995433 0.7704605727
-0.078124395 0.6795046993 0.6414329608
-0.1649190807 0.7542445177 -0.1041016755
0.0573230552 0.7477041087 -0.0184779049
0.0741101715 0.6882205791 -0.0223772564
0.1218575562 -0.0792421231 0.1351591203
0.3186564816 0.5936275904 0.2190697077
0.0873221575 0.4998544022 0.238807906
0.7665235306 -0.052662389 0.1621895447
0.1285615253 -0.091385569 0.2183308874
0.0295176194 0.7461604842 0.3705488579
0.274567207 0.7858948182 0.4547753684
-0.0214345857 0.735974962 0.5304199666
0.6878806617 0.7640301371 0.5192416859
0.7887201309 0.6851833179 0.6390165486
0.4986686907 0.705720322 0.5925768459
0.8065797862 0.7819817701 0.8334802421
-0.0029565408 0.8093171203 0.8072266288
0.1606897096 0.807641528 -0.0916905947
0.0327750269 -0.0543471792 -0.0053719432
0.0508506298 0.7829755284 0.0619107392
0.1975907328 -0.1455913825 -0.0250754
-0.002708821 -0.1281552241 0.2182769005
0.0831057832 0.7693968316 0.1897428419
0.1957543795 -0.1590950975 0.3822630082
0.1261837037 -0.0416684635 0.3286790434
0.1220976977 -0.0303610142 0.2996291103
-0.1573083322 0.3412749793 0.5041303619
-0.1576398515 -0.0687906655 0.4915684178
-0.042763997 -0.0191171894 0.6010487849
0.1175320084 0.6663898897 0.6135967324
0.1769303588 0.8314057469 0.7300164114
0.2099809187 0.5439136841 0.7446458526
-0.0931881305 0.0199715616 0.726499267
0.0627163432 -0.0058303017 -0.0481019984
0.3087828835 0.1440999453 -0.0102172145
0.191535006 0.2788181729 0.1097003136
0.093161137 -0.1010528172 0.0915842206
0.1591982724 -5.7513009017e-04 0.2137510015
-0.0401184405 0.8030926345 0.2964018953
0.7937409095 0.8200485098 0.3290089631
0.0415424941 -0.0415562908 0.4409587295
0.1347286251 -0.0585011686 0.4326847423
0.0231997563 0.7564739753 0.4747215161
0.1807332337 -0.0037667037 0.5658573458
0.0803704486 0.0058542958 0.6168389437
0.3219996683 -0.0852158698 0.5787492097
0.0507154626 0.2376341916 0.5886737954
0.0773065939 0.021104466 0.7329876886
0.0120045597 0.1614833165 0.6472565441
0.2471258826 0.2460981326 -0.1416975297
0.3606642625 0.2567295463 0.0084400168
0.3255268103 0.3401392555 -0.0672257462
0.2461761136 -0.0250063168 0.0732544796
0.0837550252 0.2750270951 0.2610844869
-0.1553644051 0.1548447315 0.1566808848
0.2318396012 0.225851058 0.3539998837
0.0964053478 -0.099516391 0.501121094
0.0423950867 -0.0447059246 0.3946909849
-0.1299999754 -0.0794102821 0.5745382341
-0.0458126553 0.005886748 0.5356596919
0.0652033382 0.7868365891 0.5490344383
0.0877898437 0.0434714249 0.5817684752
-0.0314339532 0.1189954524 0.6675226141
0.1229752842 -0.164174062 0.7930990655
0.3945900095 0.1511694256 -0.0458270518
0.0923289395 0.2848886962 0.7117738492
-0.0107306096 0.0537869155 -0.0064600585
0.1622055408 0.6867009487 0.0360284355
0.2488614604 0.1473543536 -0.0044800701
0.1924525828 0.0286058412 0.1592662558
-0.0274407246 -0.0025278051 0.2377901536
0.0541050381 0.1143363858 0.3164480188
0.1988220333 0.2427949361 0.3213098361
-0.1604711628 0.2187827775 0.364715277
-0.0231795612 -0.0180077993 0.5612384695
0.0152370333 0.1775656043 0.5517277831
0.2698703496 0.0414631134 0.5762418196
0.0957479078 0.2257450838 0.8031536196
0.0304379955 0.1626560313 0.8009261615
-0.1050348486 0.0950306822 0.7604290131
0.2753810091 0.4450117436 0.7640141409
0.0771966207 0.4293375566 -0.0994740013
0.228354449 0.3905749862 -0.0956914215
0.2979495189 0.4447318117 -0.0887322144
-0.0270682152 0.6908939287 0.1107500582
0.3697800449 0.3101245571 0.1268061523
-0.0620730997 0.4384993278 0.2178869954
0.2005472136 0.540008634 0.1736967454
0.1930168455 0.1950305556 0.3394084333
0.1025528523 0.4068390297 0.5169132523
0.0776085205 0.2054100306 0.3350964822
0.1177773487 0.1882154135 0.6048358637
0.0112069137 0.0650831675 0.672040515
0.0099551382 0.2403555296 0.5714839771
-0.006009838 0.5930417329 0.8187578236
0.0761052861 0.4847180844 0.5946713364
0.2285504014 0.2149437114 0.7720251921
0.0689416288 0.4317309744 -0.1259263663
0.0181678604 0.4894969218 0.0600869828
0.2596588337 0.7750054672 -0.0542963915
0.3075111929 0.4143731969 -0.0154386443
-0.061298888 0.3589446808 0.206978649
0.105477141 0.6903640576 0.2261239916
-0.0572698682 0.5663942153 0.429031631
0.0322015664 0.6145405029 0.3402612258
0.1618680229 0.3515084898 0.4802811637
0.4203977314 0.353525999 0.5987143528
0.2858844539 0.3685323485 0.6022714875
0.0382065056 0.3881115855 0.5776084872
0.2085912568 0.4017342715 0.6504567656
0.1954160618 0.2655374037 0.7542745102
0.0721000605 0.3885994668 0.6557674737
0.2804937653 0.5309128467 -0.1432301569
0.5172301753 0.3798036065 0.8316846789
-0.0346995588 0.5405624993 -0.0270300245
0.1104809237 0.7310101698 -0.036124812
0.1628429858 0.6246740378 -0.0394416052
0.0053244447 0.6662139325 0.0347645429
0.1791078291 0.5373872717 0.2474757974
0.3175207579 -0.1297704312 0.2042563113
0.3930803768 0.585855481 0.2399826203
-0.0916243109 0.2511389063 0.2753520161
0.1491181246 0.3784439373 0.4425033537
-0.0491770369 0.5533033999 0.4999293839
-0.0284240854 0.6925255318 0.4789284927
0.0359128636 0.6671537039 0.6629707214
-0.0566026305 0.6058846086 0.5566325899
0.3502427977 0.466418536 0.7623055566
0.0333876779 0.5537792841 0.7895049399
0.3295938209 0.6851093359 -0.0905729666
-0.022756864 -0.1391853409 0.0136736737
-0.0308736895 0.8022488398 -0.043199491
0.0275792909 -0.1309449455 0.2429329026
-0.0455273247 0.7328917121 0.2317916129
0.255579826 0.7091954766 0.1304182736
0.1113503122 -0.0880959692 0.1704555339
0.1158206247 -0.1470008396 0.2873590951
0.0568361737 0.7679251896 0.3351414713
-0.0181068552 0.7584454957 0.5028266791
0.0242710957 0.6005659025 0.5502231491
0.0038957923 0.5997481014 0.6883675432
-0.0689640234 0.627275405 0.6192743513
-0.0818502886 0.7067940608 0.787140515
0.1673424912 0.7599531289 -0.1350291519
0.0593241684 -0.1557867023 0.8323295221
0.1954168616 -0.095923665 -0.135267094
0.0909946641 0.7882822374 -0.0250414083
0.3586827445 0.0882009437 -0.0225770078
0.4096983342 0.8343770241 -4.5076434411e-04
0.2848387083 0.0583574036 0.0980976361
0.2768606491 0.7650478896 0.0890966258
0.0255025961 0.0153637425 0.2115625339
0.0728202853 -0.1600810577 0.3154672574
0.2618023123 0.5490184423 0.4052814086
0.2168312522 0.7904477106 0.3368560542
0.183835679 0.7681271405 0.6083190163
0.2802478251 -0.1582593008 0.6202751078
0.0995243891 0.6119471338 0.7416155897
0.3064974395 0.7826835994 0.7117098648
0.2220079929 0.7344113424 0.7743246327
0.3020565198 -0.1238572697 -0.1432471528
0.4556031671 0.1629215667 -0.1453486415
0.3084649608 0.1900453683 -0.059642391
0.2855085454 0.6936052691 0.0573530479
0.2146237892 -0.1110497853 0.1620615758
0.3556674781 -0.1416487416 0.1340733844
0.2948502728 0.056625225 0.3220136648
0.1340425919 0.1457985321 0.2297011214
0.5448034676 -0.1055197306 0.3697360556
0.1129023347 0.2250832448 0.3134757418
0.2577492983 0.6574200718 0.4295565033
0.0125585649 -0.1098602747 0.3455869303
0.1028039912 -0.1224506119 0.5432968341
0.3008088233 0.0383650671 0.5469369485
0.0974790866 0.0760500996 0.6461558119
0.4542574944 0.2171471754 0.811344627
0.1381747867 0.2137859931 -0.1516791015
0.0881057668 0.8209302952 -0.0766807461
0.1302675103 0.2667551074 0.0174255609
0.5067867158 -0.0688426529 -0.0766392562
0.1696459308 0.1787001283 0.0662755774
0.220836278 0.0054130832 0.228950304
0.3358443004 -0.0581440555 0.1789884581
0.1636591872 -0.1223366396 0.2771885693
0.2588210375 0.3277622665 0.3170418743
0.1504020122 -0.017507661 0.4999673747
0.2266068742 0.8000773681 0.4403168856
0.3721794612 0.7026050798 0.5592299581
0.2045882306 0.8286084274 0.5824853008
0.0380179515 0.1454368201 0.6652541659
0.2370143424 2.6942045905e-04 0.595207206
0.2328713502 0.1599848811 0.7762911543
0.2834730405 0.1445060465 0.7926891652
0.4708054688 0.2483335888 -0.0314464501
0.4317669656 0.3552615768 0.008973827
0.0707073993 0.3999047166 0.0354808687
0.2333952228 0.1943991092 0.0076644355
0.3669507332 0.1924995713 0.0279967893
0.1842911682 0.1612761669 0.2213961417
0.3418728338 0.1189894539 0.168666969
0.2714839571 0.0766557522 0.3549866436
0.1970828564 0.3240911595 0.3493690102
0.1233277985 0.1038267424 0.4356780141
-0.0354495763 0.0223449642 0.4486768519
0.396495546 0.146168842 0.4834014046
0.2636158711 0.2610744893 0.6582228764
0.3194102982 0.1377488903 0.7768950074
0.1440673533 0.0777662821 0.7429582631
0.3966395109 0.1421882104 0.7910575622
0.3338307902 0.0756519964 -0.1408477365
0.3294078661 0.2902094018 0.0577654476
0.4292415799 0.4779017426 0.0431285083
0.2666111425 0.5380431122 0.1158228242
0.2254151641 0.2313757141 0.219002724
-0.0053091485 0.318572502 0.2556977973
0.2456882323 0.4362278804 0.2303829555
0.0873143594 0.3969074458 0.3494999783
0.2093890627 -0.0236796395 0.4767630195
0.1898788089 0.3128638907 0.4131165026
0.2147577567 0.4273840318 0.6205640375
0.1942469462 0.2161934074 0.7241918284
0.0279156091 0.2425409979 0.7914104763
-0.0815087717 0.3790437914 0.7248046793
0.4688119538 0.3812712495 0.8180529951
0.2190367157 0.5929817475 0.7946166963
0.0610877394 0.2516627789 -0.1396930174
0.3565832553 0.5029636458 0.8244154473
0.1199638168 0.491206506 0.0715357977
0.0255199918 0.5930017426 0.05216501
0.1129405254 0.451842082 0.1022571243
0.0479039466 0.3183105657 0.2327173876
0.4987726654 0.5703192605 0.2821343661
0.2806217342 0.5263759504 0.4764920854
0.1532283247 0.4811629492 0.3994658233
0.1665316884 0.2069196634 0.4791704339
0.1574269033 0.4766060578 0.4332875956
0.0729114631 0.6314843811 0.4428212764
0.2710220694 0.3936702333 0.7240478634
0.340791097 0.4068250331 0.7086356127
0.1631529104 0.5708591292 0.7855249081
0.3646812853 0.7848890629 0.8067297496
0.0836330549 0.5639428117 -0.1410856786
0.4775058389 0.5445575275 0.0633606865
0.2521706554 0.5097639915 -0.1202607446
0.3078291155 0.6888844176 0.1131574726
0.2098829425 0.6497259435 0.1096853172
0.0957439087 0.6378008445 0.1974569653
0.3650791885 0.3538779134 0.3187254648
0.1425295274 0.5600337626 0.3055046809
0.2948362762 0.528589412 0.2583451533
0.1059852174 0.3360562488 0.5120834272
-0.024898743 0.5767636928 0.5322125305
0.2013290234 0.6956867628 0.6113422809
-0.0547456822 0.7164317162 0.4575466942
-0.0781845803 0.4544794404 0.6275443395
0.0181166928 0.3934582848 0.6453400104
0.0848417609 0.6634386077 0.7839322955
0.3836106804 0.7630163838 -0.093535346
0.3469715935 0.6878026807 -0.1441799258
0.1287632762 0.627353386 -0.134856194
-0.0018196553 -0.1477158657 0.117747356
0.1416991294 0.5618413229 0.1205436758
0.1855206691 0.765925676 0.2258280636
0.2543101349 0.8339891185 0.3369490316
0.3275163263 0.6671557034 0.4297974447
0.1680307238 -0.1359063386 0.3970904012
0.1057664706 0.6789548331 0.4891400086
0.2444545324 0.7322678638 0.4827985513
0.2777304375 -0.02117025 0.4977619112
-0.0155154456 0.6470825865 0.6445751964
0.0815179694 0.724559739 0.7813559222
0.2984953861 0.5328063861 0.6905580103
0.417324479 0.7328377252 0.7898298608
0.1921424582 -0.144787778 -0.1467503006
0.6130968541 0.7274650322 -0.0295913014
0.4128275729 -0.0892444898 -0.1059762195
0.3863880048 0.0274543213 -0.0072578344
0.2609205268 0.674519912 0.1456735625
0.5860994217 0.192500971 0.2746461878
0.3946140037 -0.0275309027 0.3635865516
0.2893636076 0.4072149383 0.4054803602
0.1858855803 0.7705285563 0.4605419655
0.384586443 0.6198112208 0.4057832865
0.5709631039 -0.1588449584 0.4373046184
0.0922103683 0.6233423617 0.6834867305
0.3777181139 -0.0449472658 0.670642855
0.4198698598 -0.0064547098 0.7333136093
0.1532397219 0.6300527293 0.7066880864
0.3000969965 0.0883761011 0.7744725967
0.1870598946 -0.1256270392 -0.1095983384
0.4819687532 -0.011415343 -0.0335743325
0.3554355345 -0.0243332805 0.0690541014
0.4732048852 0.2294181903 0.1351731169
0.280675721 -0.0080642582 0.1940557927
0.4261143407 0.0616228092 0.1292955467
0.3124759851 0.066536014 0.2592709281
0.4862257176 0.0773427851 0.3165959828
0.1518914499 0.1136393554 0.3793147254
0.2249552759 0.8051961228 0.496007338
0.019381845 -0.1480933739 0.4915384251
0.5666401555 0.0696332606 0.6306955729
0.3990549233 -0.0555826786 0.7026020804
0.3735331319 0.0315977133 0.6756616341
0.1963742287 0.8108627443 0.8269628276
0.207373553 0.0898299474 0.0211158632
0.4134594192 0.5126912794 -0.0122074303
0.3251449032 -0.0062569379 -0.024734083
0.422549208 -0.1278211054 -0.0337758835
0.6168759348 -0.1366263634 -0.0802499779
0.2833670663 0.280531756 0.2411283415
0.2494533164 0.1102259857 0.2078754309
0.5071006395 0.1504514002 0.3129948588
0.5038654265 -0.0190222925 0.3225525338
0.3393914375 0.1431579745 0.3900921036
0.1602652129 -0.0308203025 0.4180103121
0.3975872804 0.8093371155 0.5096650156
0.3831128015 0.3494249966 0.5757259451
0.2749211209 -0.038328476 0.61710088
0.292958733 -0.051914171 0.7193040174
0.4947116533 -0.0922745527 0.7191420568
0.6001400061 0.3554535301 -0.0914272588
0.5076705008 0.1814914492 -0.0930935535
0.4187721268 0.2210342298 -0.0468757967
0.5238745589 0.2401355831 -0.010568729
0.3785019232 0.3570971303 0.1036877762
0.3168289262 0.1639565149 0.1591682797
0.0642031815 0.2087812105 0.2061428523
0.524326449 0.3189504101 0.3094597188
0.5546550711 0.1441885238 0.3519783754
0.4440319819 0.370383898 0.3698620249
0.1621073647 0.3534360209 0.5041863483
0.1639075268 0.0391616733 0.6339447824
0.2435127615 0.1297066467 0.5569595104
0.3048498403 0.1619498031 0.6725333951
0.1742572091 0.002306019 0.6751877494
0.4867575882 0.1028643766 0.8047842229
0.4897128693 0.1855446632 -0.0590995231
0.5941654595 0.3766123829 0.8045192874
0.257705309 0.4876513708 0.7910015758
0.3722594418 0.5310888039 0.0747891063
0.2625761241 0.3102205338 0.092384226
0.4265922244 0.4982527918 0.0916750985
0.5019079027 0.4731828905 0.0736881741
0.4108040652 0.2480676535 0.3896052221
0.1109432112 0.4338104685 0.4184402075
0.5196415887 0.4571227974 0.4434711183
0.3953618218 0.3914047844 0.5277036274
0.2315576698 0.0452174001 0.5086372656
0.3979891826 0.2556338129 0.6393184752
0.1459998831 0.2351507957 0.6147994399
0.3457418926 0.2260890001 0.6134097779
0.4279978825 0.3778380847 0.7786105901
0.4782356613 0.3140595999 -0.1558600845
0.3794836844 0.2326693994 -0.1565259225
0.3585127859 0.5603596833 0.0401490331
0.3246930131 0.6710747501 -0.0462353525
0.4031459281 0.5249462982 0.0314812417
0.0204362286 0.6008038446 0.1231750356
0.3555215136 0.6067404004 0.1984937131
0.3108703757 0.2525405654 0.1808630021
0.373027255 0.184990598 0.4014153491
0.3191783546 0.1180406847 0.3209419256
0.120020803 0.0591522103 0.4039427342
0.5763018051 0.5388729103 0.485154978
0.4553932181 0.2667851001 0.7312811038
0.6176097563 0.200019342 -0.1536156305
0.2074455355 0.5725707128 0.5973606821
0.4325227817 0.6061745381 -0.1265632114
0.256821524 0.5798749359 0.7250086297
0.2885698007 0.6315683606 0.8073755925
0.3580948875 0.7047025695 0.0167146339
0.4385033269 0.7042826717 -2.8080069058e-04
0.3653451238 0.6843555193 0.0643228524
0.3136876903 0.3765384009 0.1558960757
0.1853267162 0.7984637606 0.1614587225
0.2916770448 0.2665811498 0.3056486459
0.3653631194 0.7128225942 0.2646806121
0.1516177165 0.4439420038 0.45111026
0.3127719131 0.5935376122 0.2635398896
0.2281365021 0.2028006654 0.5660802916
0.1953314824 0.3580129075 0.6019235721
0.3844144849 0.3061515236 0.6679944993
0.2548719982 0.4557951204 0.6752817265
0.4027080347 0.3781180166 0.827203769
0.4776258097 -0.1576956379 0.7972580538
0.5030936142 0.6707588269 0.0107748788
0.4333925701 0.0135862549 -0.0227641622
0.5493503615 0.0114505745 0.0852842532
0.3654431 0.5940354911 0.1286427055
0.5560747257 0.5293632237 0.0992729502
0.6464367437 0.0103270078 0.1802431529
0.2841708708 0.4745905481 0.2199045046
0.6836796837 0.6689132759 0.241262309
0.5679118461 0.7638761746 0.3930293891
0.2986613457 0.6477964129 0.4631073415
0.1930214444 0.5943574128 0.3094327254
0.1019152075 0.6003139638 0.4981788098
0.3649892104 0.5710290878 0.5918320271
0.3423547166 0.5189117662 0.7190840709
0.4946136771 0.657666012 -0.1590833004
0.404749538 -0.1445968245 0.8002343298
0.6145085107 0.4855678777 -0.0914927429
0.3050737858 0.5793170716 -0.0944361268
0.6188954435 -0.0433732487 -0.0887164183
0.5120834273 -0.0650283808 0.1948705945
0.3781240151 -0.0286822226 0.1055963119
0.3399293066 0.1466713198 0.2389078817
0.6013677074 -0.0227288708 0.2364714744
0.5976986 0.8014210412 0.3050207986
0.450222476 0.7575197209 0.3592056173
0.3526162203 0.0230883834 0.447180216
0.197668114 0.7115469045 0.5179659962
0.4203197503 -0.0534563959 0.5659903135
0.5305589328 0.0161930608 0.5995791425
0.4013803576 0.7604250141 0.6844884868
0.3753846815 -0.0556230688 0.7375685742
0.3588826959 0.0631564362 0.7023881325
0.2177190363 -0.0091447954 0.7518710949
0.5560027432 -0.0168190485 -0.0405763291
0.4044156193 -0.0702571088 0.0876694729
0.3714096485 -0.1195237239 0.0122011319
0.5904383662 -0.0225997023 0.1794643423
0.4907606144 -0.0989193362 0.1746565119
0.4640951013 -0.0779328416 0.307835114
0.4230530854 -0.0285256607 0.4793743842
0.5164683606 -0.0595045245 0.4286027353
0.362947707 0.1590433101 0.423260035
0.4760202003 -0.109497363 0.5462581137
0.5390128763 -0.0915845206 0.5647126243
0.6115072408 -0.0527757614 0.6654621153
0.453309725 -0.0627285403 0.6925425276
0.5152686524 0.7947326682 -0.1489797582
0.6226845218 0.4168126035 -0.1149590343
0.4541315251 -0.0953682001 -0.1455195999
0.5582122057 -0.0305809607 -0.0856965529
0.4478290582 0.0984948395 -0.0385567204
0.5113256117 -0.0369410135 0.1319539
0.2983194289 0.1920640773 0.0448443909
0.3530641114 0.3008768068 0.0867423985
0.784029272 0.1927115198 0.258667075
0.4645749845 0.3190143945 0.383883614
0.307531188 -5.0998993658e-04 0.2952081857
0.5708171394 0.1131782675 0.5681857794
0.3298157669 -0.0507946434 0.6084299893
0.4134874124 -0.0208211349 0.6364481734
0.6714606562 0.0309670668 0.5960280063
0.5496142973 0.0547458822 0.7938708778
0.2084932806 -0.0059044836 0.7099402953
0.4727689912 0.0905553709 -0.1481139688
0.6010757785 0.619559282 -0.1230350697
0.8013610558 -0.12184156 -0.0282289328
0.8337951657 0.2591869485 -0.0667171699
0.349842895 0.1851975477 0.088417591
0.4518780732 0.2954221337 0.191699366
0.4894149418 0.4858877998 0.1691228581
0.6859491316 0.2457342211 0.4006105449
0.6534350412 0.3564752815 0.2797929357
0.2919809708 -0.1235485448 0.4127705867
0.3215517773 0.32754232 0.5204213989
0.552517591 -0.0315953139 0.5796499905
0.3760885103 -0.0285110642 0.5875260746
0.3136197069 0.326736516 0.7052554349
0.5562846746 0.2648915608 0.8254521951
0.4734048365 -0.059473932 0.8011031184
0.4548313548 0.3846424294 -0.0521667096
0.5913761381 0.2537762648 -0.0107854763
0.5275236712 0.5945773593 0.0257285411
0.6274873534 0.3483372612 -0.0564572658
0.5187698007 0.6357493435 0.1002166206
0.5062868374 0.3782859757 0.2573284006
0.4618756412 0.4858897993 0.1941317742
0.1267897563 0.4651088546 0.2171591724
0.3996707735 0.7542845079 0.5096710141
0.4939838303 0.5261400078 0.4685010294
0.5439156836 0.3910488709 0.4650558675
0.3866539401 0.3329650008 0.6318013039
0.1929136706 0.7592193075 0.5407364569
0.5988643164 0.1849526072 0.728850695
0.5780093897 0.3559534085 0.7732428959
0.644359249 0.2895735565 -0.1015892867
0.5140389516 0.3656010615 -0.12903561
0.4501025052 0.6870988519 0.0361503058
0.6556405047 0.707195963 -0.1185851522
0.6697690677 0.2508369798 0.0210211862
0.3146574544 0.4869655376 0.1247006645
0.3839286031 0.3330989682 0.1852009468
0.4689659163 0.6955028075 0.1495306242
0.3145634773 0.2289643007 0.3373599316
0.519981506 0.4817328106 0.3046758825
0.1168703694 0.5461651364 0.5399316527
0.4044995988 0.5034715223 0.4480040156
0.5364175076 0.4781576803 0.4845451264
0.3135137326 0.2750210966 0.6185485278
0.3275363214 0.4721951308 0.6858961444
0.3710617331 0.4456375913 0.6229404594
0.3570131507 0.2924728512 0.8107397741
0.3463537438 0.5088282192 -0.0368092455
0.5693315008 0.4501844852 -0.1108860251
0.552587574 0.409900285 -0.1435440805
0.7054963764 0.3495409684 0.002400556
0.2613644188 0.5515778196 0.0834988875
0.3863000262 0.5668201117 0.20385041
0.4348062263 0.6326980858 0.2013090282
0.7502454905 0.6680054967 0.1202627441
0.3347085766 0.3334888734 0.3968894501
0.2570214753 0.2983034328 0.3597374879
0.4523859497 0.5188077915 0.400667531
0.1514219641 0.8239275661 0.5503771117
0.1372976001 0.6154942709 0.6212078809
0.3060875392 0.5731465727 0.6472875366
0.5077104911 0.2508789696 0.5735924641
0.4974449883 0.4256344574 0.8020098978
0.3867839085 0.7356570394 -0.0741443632
0.387821656 0.7263852949 -0.1194179496
0.6722944533 0.7174214755 -0.0851908759
0.6085019719 0.7530748022 0.0219527596
0.5749881247 0.7000756951 0.18103596
0.3687143042 0.7528728513 0.1035188173
0.4525679054 0.0433510541 0.3325710966
0.3037181156 -0.0999818778 0.2309348213