Cl
  1.000000
24.12037211	0.00000000	0.00000000
0.00000000	24.12037211	0.00000000
0.00000000	0.00000000	120.60186057
Cl Na 
1280 1280 
Dir
 0.97946673	0.94280884	-0.03335446
 0.97448422	-0.01818699	0.01022654
 0.99110540	-0.03496256	0.06080661
 0.96484101	0.95978619	0.11678427
 0.00774503	-0.03459797	0.16431090
 0.98941890	-0.01033438	0.21491211
 0.99479639	-0.00636520	0.26836816
 0.97483799	0.95984423	0.31351341
 0.95555740	-0.03285331	0.36502422
 0.92583149	0.00018406	0.40739255
 0.92945498	-0.03524502	0.46719180
 0.92912746	0.95881605	0.51393154
 0.93610082	0.95977375	0.56573505
 0.96251202	-0.03198935	0.60892178
 0.95717014	0.94207916	0.66104536
 0.93697974	0.93448807	0.70904130
 0.97981408	0.94950442	0.76537708
 0.93855103	0.95260554	0.81719220
 0.95696252	-0.00970872	0.86531833
 0.94578557	-0.02455464	0.90959625
 0.97712158	0.20627377	0.96140308
 0.97826331	0.22368436	0.01216009
 0.97223787	0.20888442	0.06088994
 0.97021650	0.20519211	0.11085235
 0.99150610	0.21850160	0.15345369
 0.97138452	0.20788858	0.21560696
 0.00766220	0.20677790	0.26626952
 0.97123104	0.23054537	0.31958131
 0.97529230	0.20970613	0.36324149
 0.92021798	0.21002164	0.41266279
 0.96756766	0.22446627	0.46142323
 0.98171401	0.22750685	0.51475823
 0.98456127	0.21794647	0.56327738
 0.94255594	0.22680703	0.61825083
 0.97237907	0.24421141	0.66573600
 0.96005152	0.22033698	0.71114575
 0.94545390	0.19927387	0.76595253
 0.96855670	0.20908508	0.81594761
 0.94379970	0.21974495	0.85690220
 0.94864208	0.22828752	0.91317828
 0.94508492	0.47034515	-0.03567905
 0.96103725	0.45637770	0.02038982
 0.97794304	0.47205739	0.06036035
 0.96314435	0.47778699	0.10842536
 0.98971285	0.43805294	0.16181591
 0.95729452	0.47171743	0.21533250
 0.99563742	0.46615367	0.26181769
 0.95676310	0.44588864	0.31354077
 0.99220335	0.43794100	0.36585754
 0.96160312	0.45323513	0.41757648
 0.95239824	0.44478170	0.46413297
 0.97044212	0.45353363	0.50724010
 0.96073559	0.46330546	0.56550040
 0.93910243	0.47099190	0.61084381
 0.94996461	0.47362039	0.66422193
 0.92203387	0.43398584	0.71390524
 0.93703778	0.47463198	0.76520378
 0.93007272	0.45783705	0.81035897
 0.97798670	0.47394791	0.86375119
 0.95573152	0.48371559	0.90943871
 0.94758488	0.72007181	0.95982765
 0.93215809	0.69577285	0.00634975
 0.99252499	0.72419695	0.06393268
 0.98119494	0.71461999	0.10791542
 0.97301625	0.71764233	0.16899573
 0.93547893	0.69569822	0.20978532
 0.97482220	0.69427204	0.26268832
 0.95253091	0.74419250	0.31826706
 0.95287087	0.67912717	0.36569419
 0.97030125	0.70410191	0.41696703
 0.95142811	0.68280870	0.46355835
 0.95802005	0.71481484	0.51338346
 0.94620016	0.71733139	0.55934460
 0.98822228	0.70874528	0.61822512
 0.95160223	0.70645676	0.66525093
 0.95616361	0.70788709	0.71801877
 0.90661122	0.71775841	0.76251560
 0.94222012	0.71568962	0.81090706
 0.94012646	0.69341385	0.85684416
 0.95383271	0.70891527	0.91620477
 0.20893956	-0.02924536	0.95739816
 0.23368338	0.00410879	0.01271697
 0.22793264	-0.02393068	0.06486898
 0.22799773	0.95625805	0.10972053
 0.19408407	0.96460784	0.16525947
 0.23065896	-0.02851664	0.21190967
 0.20562577	0.93539187	0.25413124
 0.24160780	0.95609222	0.31011296
 0.21765129	-0.03627179	0.36700263
 0.21512479	-0.02258667	0.41999269
 0.20689896	0.95013045	0.46108161
 0.18140806	0.96444200	0.51249956
 0.23710455	0.93538773	0.56839339
 0.31748308	0.94826066	0.63721488
 0.21398136	-0.03341731	0.66083889
 0.19362471	0.96368331	0.71732227
 0.19292654	0.94456669	0.75719230
 0.21515671	-0.00346112	0.81250819
 0.18598345	-0.01199542	0.86292201
 0.16634818	-0.01848736	0.91695932
 0.21982124	0.22977299	-0.03728201
 0.22960467	0.21383625	0.01315842
 0.22593764	0.21932415	0.06161339
 0.25762662	0.21232550	0.11580253
 0.23035714	0.22735843	0.16240794
 0.23934374	0.21140511	0.20589400
 0.24189511	0.21000795	0.26380605
 0.23805852	0.20379453	0.31367095
 0.20985290	0.18265556	0.36654493
 0.22463086	0.19160152	0.41335183
 0.22267152	0.19600693	0.46545468
 0.19652101	0.19013347	0.51412391
 0.18767911	0.20040072	0.56099466
 0.18485370	0.20153503	0.61412734
 0.20137500	0.18527368	0.66064818
 0.18336740	0.22161557	0.71301222
 0.21774664	0.24291333	0.75804137
 0.18152000	0.20797648	0.81086062
 0.19337969	0.22695711	0.85384255
 0.18148974	0.21533457	0.91676032
 0.18846102	0.44255122	0.95991886
 0.20561996	0.46425486	0.01613275
 0.22299615	0.49977256	0.06720983
 0.22145388	0.49490115	0.10979598
 0.23402127	0.45952027	0.16228025
 0.22641317	0.45592995	0.20849347
 0.24351739	0.45925908	0.26385497
 0.22957067	0.45030814	0.32187563
 0.21221314	0.45164726	0.36221415
 0.22608689	0.46626561	0.41025321
 0.23034927	0.45549463	0.46816027
 0.20568547	0.49662169	0.51154352
 0.22289830	0.47850008	0.56398052
 0.20902911	0.46451191	0.61017964
 0.22088465	0.46858315	0.66500550
 0.19413009	0.44875759	0.71246330
 0.31344044	0.33081413	0.76362835
 0.20906062	0.45768780	0.81496753
 0.22836547	0.46395221	0.86166167
 0.21981170	0.45959490	0.91785483
 0.22439123	0.73405584	-0.03399342
 0.23094793	0.74365354	0.01404970
 0.22661383	0.72393162	0.06118836
 0.22119228	0.70769638	0.11806368
 0.20982098	0.71091772	0.16445020
 0.23212080	0.71393592	0.21198180
 0.20451053	0.69816502	0.26785491
 0.23026552	0.72187526	0.31250347
 0.20705029	0.71394421	0.36527214
 0.22573408	0.70661016	0.41116198
 0.20213370	0.71993914	0.46700855
 0.21458749	0.72071442	0.51237850
 0.21693322	0.74004663	0.55990596
 0.20074815	0.70585147	0.61395156
 0.23012166	0.69268417	0.65863412
 0.22625314	0.68399442	0.71457687
 0.17375064	0.72362482	0.76289370
 0.21381138	0.75411357	0.81077522
 0.19908731	0.71835127	0.86283909
 0.19846336	0.71782475	0.90896608
 0.48362853	0.94649037	-0.03632183
 0.48115759	0.95323156	0.01560482
 0.47102507	0.00396844	0.06002080
 0.48265425	-0.00312756	0.11159612
 0.49119060	-0.01062148	0.16190049
 0.47710292	0.95614197	0.20624557
 0.43925110	0.95251433	0.26019582
 0.46758814	0.95448362	0.30998527
 0.49454876	0.93562404	0.36427547
 0.46650192	-0.03510949	0.42034177
 0.45117049	0.95102181	0.46507823
 0.45020450	0.94206258	0.51296389
 0.46316035	-0.03346188	0.56510571
 0.47575551	-0.03434280	0.61530311
 0.43983981	-0.02976940	0.66517465
 0.41942139	-0.03728869	0.71424105
 0.41647782	-0.03371967	0.75715664
 0.44946653	-0.00804258	0.81369972
 0.41382322	-0.01851576	0.86606458
 0.46116619	-0.01897956	0.91121314
 0.45233962	0.21390715	-0.03208433
 0.46560642	0.22391819	0.01444397
 0.44436711	0.21604559	0.06500240
 0.47582599	0.22369970	0.10965005
 0.50440764	0.23793290	0.16109370
 0.46908895	0.23353537	0.21407381
 0.46255091	0.24002946	0.26247522
 0.46875728	0.18569448	0.31495700
 0.47035759	0.19330257	0.36636997
 0.45650622	0.20068886	0.41923814
 0.48211528	0.22689244	0.46399201
 0.44678830	0.19773368	0.51623001
 0.46050699	0.21505265	0.56408168
 0.46049870	0.19810059	0.61596894
 0.44244757	0.20576590	0.66748639
 0.44769210	0.19208949	0.72007844
 0.46935428	0.22642271	0.76466897
 0.46677555	0.23328910	0.81686882
 0.44565647	0.23203208	0.86455548
 0.44338454	0.24957782	0.92321130
 0.45060665	0.50057271	-0.03761517
 0.46362883	0.47853739	0.01362599
 0.48658868	0.47427958	0.06393575
 0.46351690	0.46410976	0.11185482
 0.46731452	0.43114592	0.15881596
 0.47417179	0.45833870	0.20832183
 0.47685002	0.46822246	0.26352496
 0.47676711	0.45593824	0.31243133
 0.46367444	0.44448734	0.36081367
 0.46981862	0.44274193	0.41453423
 0.47063121	0.47173816	0.46731286
 0.47442883	0.49476434	0.51849283
 0.44764235	0.42825625	0.56404768
 0.47514192	0.45623674	0.61322686
 0.44864565	0.42837648	0.66676500
 0.36237376	0.45190016	0.74095126
 0.44493509	0.47186254	0.76596082
 0.43144857	0.49040703	0.80943113
 0.46608319	0.47298192	0.86235817
 0.46308158	0.48491375	0.91151993
 0.43912672	0.73005093	0.95914772
 0.47686246	0.70905208	0.01057795
 0.45958246	0.71345085	0.06506376
 0.50748802	0.73476478	0.11596504
 0.48632334	0.71869123	0.15796937
 0.51134783	0.71719043	0.21326205
 0.48090883	0.68181784	0.25972485
 0.47059805	0.72331388	0.31499680
 0.47752165	0.72821845	0.37095613
 0.46428388	0.69721561	0.41790980
 0.44603789	0.71274191	0.46519100
 0.44338868	0.72279979	0.51475077
 0.44662661	0.70895258	0.56515629
 0.31047448	0.70108786	0.58751332
 0.56125171	0.57175320	0.66252129
 0.42811943	0.71172617	0.71580322
 0.43124957	0.71651465	0.76457941
 0.44636956	0.72364141	0.81485227
 0.43741033	0.72610820	0.86334489
 0.46113302	0.74310628	0.91196769
 0.72728977	-0.03339517	-0.03482741
 0.71590935	-0.01528646	0.01121823
 0.67529638	-0.03347917	0.06311238
 0.72581384	0.95295379	0.11464748
 0.73117031	-0.02064334	0.16338471
 0.74545284	-0.01798542	0.21315177
 0.74038659	-0.02950228	0.25708559
 0.72046567	0.94582289	0.30671417
 0.72829308	-0.00946188	0.36220171
 0.69232763	0.95395709	0.41515446
 0.70122053	0.96444615	0.46173997
 0.70795342	-0.01809110	0.51307998
 0.70979004	0.94106343	0.56386195
 0.72902275	0.94981951	0.61452452
 0.69021738	0.94081467	0.66647894
 0.66090606	-0.03015488	0.70975522
 0.69578529	-0.03712065	0.75885645
 0.68051189	-0.02899868	0.81620383
 0.74584256	-0.02118794	0.86394190
 0.68217438	0.02288091	0.90634588
 0.70991028	0.22464496	-0.03558336
 0.70476525	0.23881514	0.01368445
 0.71825177	0.21818527	0.06104135
 0.74577208	0.20747773	0.11344767
 0.75745100	0.22970748	0.16486064
 0.76626513	0.23117015	0.20696613
 0.72668033	0.22716772	0.27689871
 0.71373692	0.22748032	0.31546943
 0.70282912	0.20540645	0.36098780
 0.67844724	0.22859805	0.40955172
 0.69625792	0.21384164	0.46453015
 0.70895258	0.20928574	0.50750461
 0.71158521	0.23274351	0.55796735
 0.73753423	0.24629678	0.62173336
 0.72678812	0.18233591	0.66311829
 0.67922667	0.23386289	0.71843751
 0.69248932	0.19600071	0.76742597
 0.67735688	0.22393270	0.81641112
 0.70935887	0.22139335	0.85997844
 0.71909753	0.21217832	0.90733260
 0.71053216	0.45500542	-0.03613493
 0.71869538	0.46773739	0.01355551
 0.71592594	0.46385271	0.06026532
 0.74165108	0.45101709	0.10740630
 0.75700325	0.47640641	0.16232005
 0.73554835	0.45568949	0.21567329
 0.74688317	0.44719459	0.26766337
 0.74319334	0.43868312	0.31714602
 0.70786221	0.44618715	0.36740395
 0.66909001	0.45961977	0.41074988
 0.69008471	0.44550722	0.46219022
 0.69194206	0.48212772	0.51618855
 0.71554452	0.46078477	0.56604848
 0.72443327	0.44607935	0.61396897
 0.69925953	0.47546945	0.65871703
 0.69764264	0.47032442	0.71591018
 0.70027112	0.45042008	0.76264246
 0.73453676	0.48067252	0.81703383
 0.69718659	0.45649379	0.86443940
 0.71380325	0.45310246	0.91395771
 0.72676739	0.69502245	-0.03239453
 0.72747219	0.69951243	0.01338595
 0.69856302	0.74374474	0.06724722
 0.70522544	0.74883173	0.11500071
 0.71816885	0.67650283	0.16236483
 0.72288686	0.70654797	0.20605569
 0.72967780	0.81245844	0.23588608
 0.71607933	0.69629108	0.31711866
 0.73238091	0.73484356	0.36586583
 0.71267143	0.69299097	0.41557568
 0.71673024	0.67661062	0.46621669
 0.71544502	0.70601730	0.51219939
 0.72729392	0.69903980	0.56701198
 0.73547373	0.68838076	0.61647225
 0.66771773	0.71677999	0.66220288
 0.66318629	0.74285753	0.71640188
 0.69932172	0.69699588	0.75809693
 0.66767212	0.74233929	0.81610847
 0.71083480	0.73114544	0.86886719
 0.71044924	0.69888640	0.91331095
 0.98323911	0.10952194	-0.01260918
 0.98167727	0.08493982	0.03751153
 0.97852670	0.07931884	0.08561642
 0.01159369	0.11449077	0.13268452
 0.99862527	0.07732343	0.18708998
 0.98134353	0.08969430	0.24048219
 0.96717244	0.10982666	0.29019038
 0.95837875	0.08712386	0.33925099
 0.95518427	0.10218043	0.38461844
 0.94214550	0.10496190	0.43986054
 0.96358795	0.11027442	0.49111100
 0.93909828	0.07226049	0.54130591
 0.97684708	0.09559305	0.58984662
 0.96975482	0.05088520	0.64086988
 0.96922411	0.08062894	0.68984010
 0.96261367	0.05050295	0.73711466
 0.92980738	0.06414992	0.78725983
 0.93734872	0.08684070	0.83875986
 0.95017191	0.10645275	0.88776408
 0.95329790	0.07424388	0.93921437
 0.98086651	0.39152505	-0.00553792
 0.95181782	0.32397013	0.03988579
 0.96617084	0.32796799	0.08777228
 0.96611694	0.32387063	0.13048472
 0.99084952	0.33385969	0.18178161
 0.00431192	0.36252467	0.24148301
 0.99176182	0.32548669	0.28815808
 0.00002122	0.34188030	0.33775930
 0.96445030	0.33567019	0.38503801
 0.94304515	0.34381642	0.44085390
 0.93803694	0.34666173	0.48732250
 0.96746849	0.38081544	0.53819982
 0.96789399	0.32472385	0.58980682
 0.96119993	0.35356088	0.63879363
 0.95792055	0.35213387	0.68510883
 0.94946711	0.32792031	0.74115026
 0.96081436	0.32168160	0.79132859
 0.96900852	0.35653928	0.83799702
 0.96552309	0.35394023	0.89421506
 0.97779097	0.33396541	0.93501045
 0.99424379	0.60303381	-0.00971685
 0.99037386	0.61452617	0.03821931
 0.99653937	0.58251174	0.08279192
 0.98018642	0.58826207	0.14006169
 0.95585590	0.54166246	0.18524756
 0.97380679	0.59569977	0.23844657
 0.98935178	0.60892510	0.28869123
 0.97211623	0.57217194	0.33910920
 0.97402470	0.56079151	0.38894839
 0.95155663	0.55785624	0.44359929
 0.94918519	0.60213416	0.48608371
 0.95335594	0.58896272	0.54232828
 0.96944765	0.63867588	0.58769243
 0.93882051	0.56631796	0.63589815
 0.95737744	0.57295965	0.69192465
 0.95422657	0.59152487	0.73902342
 0.90037583	0.59542199	0.78792483
 0.93788769	0.59577024	0.83009499
 0.92765567	0.62687258	0.88423180
 0.96580600	0.58527289	0.93628738
 0.94710811	0.83817944	-0.00906636
 0.96106830	0.86907034	0.03163177
 0.96377556	0.87076186	0.08801357
 0.97651637	0.82595326	0.13548796
 0.98046954	0.84303426	0.19241992
 0.98291316	0.81375196	0.23509505
 0.97277111	0.83333291	0.28493342
 0.94356753	0.83786021	0.34213071
 0.96316922	0.80981752	0.38829169
 0.95065698	0.84183610	0.44193597
 0.95135348	0.83857330	0.48637226
 0.93009759	0.83516954	0.53614513
 0.94928884	0.83396723	0.58758712
 0.97103925	0.81324201	0.64159790
 0.94289590	0.83298881	0.68490983
 0.92289206	0.83873499	0.73990650
 0.94952930	0.84338666	0.79167352
 0.96005152	0.83762389	0.83565875
 0.95343471	0.85713023	0.88501951
 0.96176697	0.83272762	0.93360915
 0.21279813	0.07569867	-0.01742618
 0.23578285	0.07902697	0.03594090
 0.23581892	0.10541587	0.09270172
 0.22809557	0.08847791	0.13745062
 0.23521694	0.07304241	0.18496978
 0.23470948	0.08476942	0.23045581
 0.25197829	0.06945747	0.28538863
 0.25319220	0.06348617	0.33758932
 0.20636954	0.07864845	0.39220871
 0.18652905	0.13093703	0.44163995
 0.20344918	0.06977504	0.48571639
 0.22272791	0.08423999	0.53915006
 0.21653024	0.07514644	0.58879854
 0.20799099	0.09136509	0.63854156
 0.20027842	0.08130223	0.68371002
 0.21890210	0.09553377	0.74532018
 0.20547320	0.08244856	0.78852764
 0.18860364	0.09304458	0.83895886
 0.19085153	0.09695248	0.89245721
 0.18733169	0.09934838	0.93702534
 0.20750343	0.35399744	-0.00930516
 0.20609798	0.36038706	0.04547111
 0.21892075	0.32800323	0.08674991
 0.21387978	0.34926990	0.13538265
 0.23623102	0.35145312	0.18845812
 0.23177876	0.36463492	0.23625506
 0.23581353	0.34540388	0.29068042
 0.22501436	0.28453748	0.33970289
 0.22786920	0.34708917	0.38871042
 0.25291650	0.34653197	0.44068889
 0.24048385	0.33483646	0.48695766
 0.19009823	0.35336561	0.54225946
 0.20008025	0.32732704	0.58737485
 0.18096736	0.32524540	0.63696115
 0.21109293	0.33939692	0.68106992
 0.17966472	0.38235646	0.73997117
 0.18381806	0.33285888	0.78723827
 0.22058864	0.32756584	0.83192746
 0.18528404	0.30278596	0.88448884
 0.20123073	0.32754801	0.93993575
 0.20599143	0.59078691	-0.00468559
 0.23081941	0.59953884	0.03635964
 0.24413885	0.60317063	0.09241317
 0.21069617	0.56465547	0.14050198
 0.23630854	0.56769854	0.18559498
 0.22460101	0.57214291	0.22880659
 0.23196989	0.57257823	0.29158837
 0.20974220	0.58688564	0.34076423
 0.21567536	0.56979220	0.38644014
 0.22550025	0.58244955	0.44313247
 0.22341944	0.62755665	0.48917487
 0.22169020	0.59707205	0.54067823
 0.19906824	0.61411573	0.59181840
 0.20537411	0.56720103	0.63727375
 0.21671971	0.57097792	0.68620334
 0.19908068	0.60831566	0.73951015
 0.21834572	0.55985040	0.78990572
 0.22656160	0.60200149	0.84392562
 0.21194283	0.57251604	0.88678566
 0.21989586	0.58880518	0.93998550
 0.16196060	0.86391702	0.00106026
 0.23688399	0.86495349	0.03965735
 0.26219206	0.83595725	0.08166325
 0.21284829	0.83116048	0.13944727
 0.21017006	0.83850282	0.18671768
 0.21617245	0.79754159	0.23775836
 0.24073799	0.85932754	0.28669873
 0.21105147	0.86426527	0.34846809
 0.18202290	0.84258650	0.39171535
 0.19644556	0.82141353	0.43740121
 0.20168138	0.85196032	0.49425191
 0.20775757	0.88263978	0.53767578
 0.19684854	-0.02668889	0.61467128
 0.20357107	0.83922005	0.63428126
 0.19420513	0.84348201	0.69023230
 0.22708605	0.79454827	0.73515450
 0.16562307	0.83359825	0.78760891
 0.20474726	0.86314589	0.84099863
 0.22303221	0.85650005	0.88932293
 0.19113470	0.84975886	0.93311164
 0.47073486	0.07644700	-0.01112943
 0.47119920	0.10123600	0.03511181
 0.46987252	0.09908719	0.08836016
 0.49578008	0.11221717	0.13873086
 0.50631060	0.10521106	0.18580974
 0.47095459	0.06689408	0.23335378
 0.47604572	0.09483560	0.28283809
 0.48377778	0.05689838	0.34436533
 0.46083452	0.07893203	0.39283474
 0.46832196	0.06972985	0.44404373
 0.45313978	0.07228164	0.48695186
 0.43971958	0.06966269	0.53573552
 0.49274115	0.09849558	0.58615099
 0.44324358	0.08735147	0.63760376
 0.42391137	0.09721782	0.68955404
 0.41902753	0.09731691	0.74007067
 0.43648995	0.09751052	0.78712218
 0.46537425	0.08656334	0.84035188
 0.44207859	0.10673053	0.88967118
 0.49489701	0.07305692	0.93978650
 0.45827237	0.32756626	-0.00868751
 0.47245954	0.33119182	0.04160491
 0.49556449	0.32671925	0.09179129
 0.48660941	0.31957053	0.13431385
 0.49091697	0.34939842	0.18954434
 0.47902246	0.33924311	0.23622107
 0.48506714	0.32014929	0.29556841
 0.49194515	0.33910712	0.33615899
 0.42733586	0.30144809	0.39348978
 0.46239751	0.32374501	0.44079834
 0.46505087	0.33696039	0.49541275
 0.44264242	0.33692930	0.53503735
 0.46350860	0.29998086	0.59294442
 0.50449885	0.30716981	0.63973557
 0.44947068	0.31694121	0.68681113
 0.43884895	0.32157630	0.74086005
 0.46481041	0.35229017	0.78583614
 0.43629095	0.34543746	0.84013629
 0.45762976	0.34773759	0.88520193
 0.46574738	0.33796991	0.94663548
 0.45195406	0.59118076	-0.00941851
 0.47600841	0.60897900	0.03519100
 0.46253018	0.57873900	0.08869266
 0.49201148	0.57494967	0.14033531
 0.47584258	0.58841547	0.18378821
 0.47796112	0.60123865	0.23308513
 0.43739790	0.60287213	0.28984379
 0.47032442	0.58229616	0.34280980
 0.47854983	0.58350675	0.38683897
 0.44731897	0.57659973	0.43894265
 0.46957402	0.59118491	0.48906377
 0.48742615	0.62839412	0.54037641
 0.43617901	0.59361439	0.58769657
 0.44727751	0.56010745	0.64209789
 0.45673839	0.58676126	0.68680450
 0.47839643	0.60210514	0.73658151
 0.45665962	0.57013217	0.78486766
 0.44386131	0.57655412	0.83914957
 0.46751352	0.58680272	0.88808746
 0.42305317	0.60974184	0.93722435
 0.47049025	0.82235050	-0.01492564
 0.47502169	0.85152915	0.04226800
 0.47054830	0.84783103	0.08917358
 0.47141478	0.87014412	0.13966866
 0.49252142	0.84414535	0.18087449
 0.48215674	0.84758643	0.23790429
 0.46412219	0.84010727	0.28113580
 0.49459021	0.82985038	0.33580494
 0.47536165	0.84962205	0.39221120
 0.42459544	0.81752056	0.44039122
 0.43610853	0.83591579	0.49055213
 0.43977348	0.85421982	0.53823050
 0.47032442	0.81395096	0.59454804
 0.42335582	0.83377238	0.63739066
 0.42255567	0.84631364	0.68917842
 0.45202039	0.83585775	0.73211308
 0.43908941	0.83892570	0.78517114
 0.40320273	0.86790950	0.83896716
 0.43889041	0.84867265	0.89005260
 0.45308173	0.84400025	0.93462074
 0.71109185	0.09977748	-0.01591327
 0.71040363	0.09088832	0.03738350
 0.72243081	0.08411935	0.08287841
 0.75847503	0.12249645	0.14103265
 0.74788233	0.09970576	0.18967535
 0.71633223	0.10064521	0.23775587
 0.73388586	0.06538332	0.28891843
 0.72097561	0.08586601	0.33159687
 0.70241039	0.08963502	0.39227421
 0.70597584	0.09154253	0.43816903
 0.73843803	0.06196339	0.48670725
 0.71297822	0.10042590	0.53976945
 0.70819388	0.08519437	0.59984730
 0.71021292	0.08255511	0.64216173
 0.72261738	0.09518759	0.69296526
 0.70062352	0.10948504	0.73783107
 0.67863795	0.09095755	0.78653430
 0.69649838	0.10884492	0.83804677
 0.73480624	0.10557797	0.88080731
 0.72620356	0.09583600	0.94421429
 0.67510567	0.34518041	-0.01071658
 0.72420525	0.34929975	0.03864318
 0.72103365	0.31292013	0.08883860
 0.74299849	0.35157045	0.13267374
 0.71402713	0.32802686	0.18558420
 0.77032394	0.33228467	0.23873181
 0.71150644	0.34216305	0.29503027
 0.73350858	0.32912137	0.34128993
 0.72508832	0.35245891	0.39269875
 0.70088886	0.32094654	0.43982572
 0.69457054	0.32275041	0.48598504
 0.71567718	0.33533106	0.53343290
 0.69423888	0.33287961	0.59032257
 0.70189630	0.36441187	0.64054070
 0.70139880	0.34692044	0.68997360
 0.72108755	0.33714944	0.74192139
 0.70288717	0.35248130	0.78477313
 0.67726567	0.34792374	0.84329545
 0.72484371	0.33637665	0.88584869
 0.68629124	0.36667345	0.94214964
 0.70852141	0.58311704	-0.01095414
 0.71012171	0.57509478	0.03612183
 0.72704102	0.60780571	0.08649784
 0.71656440	0.57941478	0.13327323
 0.74386083	0.57337838	0.19274247
 0.70750152	0.57981693	0.23154535
 0.74873638	0.59671550	0.28919206
 0.72738928	0.58470906	0.33748816
 0.69817331	0.57991643	0.39068054
 0.69697101	0.56649209	0.44134062
 0.70379511	0.57872242	0.48953639
 0.71757599	0.56490837	0.54328847
 0.69372479	0.58038906	0.58825295
 0.71310674	0.61765216	0.64182509
 0.67696302	0.58154575	0.68987742
 0.68356325	0.57259896	0.73608317
 0.67122099	0.60914069	0.78978052
 0.69144456	0.58676955	0.84123909
 0.70832241	0.58429861	0.89078228
 0.71817300	0.55855689	0.94076492
 0.70073546	0.85783917	-0.01055846
 0.72576824	0.80870228	0.03777695
 0.69503074	0.85776040	0.09174485
 0.73222751	0.85117675	0.14335019
 0.73994713	0.85316263	0.18707174
 0.84007825	0.67903596	0.23818372
 0.72840087	0.80588309	0.28601715
 0.73510475	0.85231272	0.33503463
 0.73461968	0.85768577	0.39529075
 0.72380724	0.83311733	0.43847748
 0.72689592	0.83468447	0.48761437
 0.70761346	0.83235449	0.53610284
 0.70889454	0.82497483	0.59269981
 0.70601730	0.83789752	0.64154980
 0.72334705	0.83848624	0.68713036
 0.68945868	0.84676969	0.74054164
 0.65425608	0.86078689	0.78660810
 0.67895304	0.82075434	0.83924078
 0.70186728	0.87065406	0.89487840
 0.73789077	0.83983779	0.94328561
 0.07828942	0.96754312	-0.01040349
 0.07759955	0.96250173	0.03124380
 0.12040942	-0.02937069	0.08536518
 0.10775041	-0.03002968	0.13474916
 0.11233823	0.00653045	0.18996722
 0.09430659	-0.03734532	0.23554446
 0.12608553	-0.03114550	0.28268469
 0.07421196	0.95406074	0.34481806
 0.06665071	0.94885767	0.39063162
 0.05789007	-0.01121952	0.44125604
 0.06289206	-0.00367187	0.48734572
 0.08278687	0.95998104	0.54412345
 0.07307267	0.94367947	0.58484836
 0.10010791	0.94787509	0.63583762
 0.07682925	-0.01167179	0.69117839
 0.06746289	0.91958366	0.73249450
 0.07834207	-0.02605822	0.79078465
 0.06275152	-0.02648898	0.84101522
 0.08528351	0.95438412	0.88831963
 0.06396833	0.94355095	0.94120438
 0.11043486	0.21733827	-0.00838495
 0.10231434	0.21438309	0.03906921
 0.08976064	0.18998919	0.08625157
 0.12002676	0.22453882	0.13086034
 0.10163815	0.22876264	0.18818035
 0.13532212	0.23242179	0.23384299
 0.09763531	0.19802597	0.29513724
 0.10442584	0.17335056	0.33714156
 0.10214353	0.21615255	0.38957940
 0.07427456	0.24454391	0.43740121
 0.08532621	0.20705817	0.48172059
 0.07984578	0.20705775	0.53860446
 0.09310097	0.19138179	0.58776954
 0.07037868	0.23016726	0.64274299
 0.07956925	0.19462096	0.68967178
 0.08338968	0.23237162	0.73750355
 0.05337646	0.19485313	0.78596963
 0.07458633	0.22529130	0.83521100
 0.06201480	0.20616929	0.88807088
 0.08384821	0.21896884	0.94161068
 0.08481088	0.50068050	-0.01701019
 0.10718989	0.46949939	0.03818797
 0.11026613	0.47305655	0.08914788
 0.08401985	0.45622845	0.13183213
 0.10847469	0.47048611	0.19228227
 0.10568908	0.47051098	0.23636617
 0.10706427	0.47885663	0.29291837
 0.09337625	0.43915989	0.33768302
 0.09252967	0.45329732	0.39344252
 0.10453363	0.46138177	0.43751978
 0.10440262	0.47977286	0.48659200
 0.10745481	0.48126123	0.53211285
 0.08874283	0.46959060	0.58862442
 0.08785437	0.47799428	0.63044052
 0.07301587	0.46397294	0.68977460
 0.07093091	0.47287413	0.73624569
 0.06691563	0.48742615	0.79264366
 0.09396455	0.46731866	0.84352762
 0.11466117	0.43886139	0.88566627
 0.07954313	0.47131114	0.93454611
 0.10866002	0.73830121	-0.01083690
 0.13566789	0.73296547	0.03665640
 0.11997659	0.70052402	0.08350120
 0.08318487	0.70240624	0.14367689
 0.08306049	0.71472363	0.18920106
 0.09794210	0.71068141	0.23741010
 0.10144578	0.71805692	0.28699143
 0.10046362	0.70292033	0.33749562
 0.08792899	0.69753899	0.39448479
 0.06383815	0.68137838	0.43961096
 0.07815510	0.73344225	0.48615751
 0.10974043	0.72514636	0.53560451
 0.10047109	0.71685876	0.58042471
 0.09581195	0.69644033	0.63850590
 0.08993850	0.68680118	0.69085999
 0.06319803	0.72683373	0.73995956
 0.04652789	0.70274621	0.78639666
 0.10088650	0.73557323	0.83827065
 0.06042734	0.72236862	0.88225007
 0.08947830	0.71267143	0.93286289
 0.32962510	0.96124554	-0.01462457
 0.33794296	-0.01688672	0.03640715
 0.35633571	0.96755141	0.08703680
 0.32485486	-0.00853930	0.14138837
 0.37608458	0.92196339	0.18176336
 0.37815254	0.92947156	0.23299972
 0.35168570	0.96035003	0.29018624
 0.36674932	-0.03872569	0.33697158
 0.34507262	0.95417268	0.39307520
 0.34681845	0.94878304	0.44074444
 0.32758616	0.94401114	0.49037303
 0.34187574	0.95442557	0.54023130
 0.36548565	-0.03140913	0.58834996
 0.43563175	0.70667235	0.66593251
 0.32706875	0.83998290	0.66539438
 0.30817891	0.95983179	0.73940319
 0.33321874	-0.03201033	0.78976974
 0.32091959	-0.02835491	0.83425744
 0.31084512	0.00121219	0.89880869
 0.35332788	-0.03618269	0.94084784
 0.34529608	0.22804333	-0.01054279
 0.34295698	0.22730495	0.03916930
 0.33879411	0.19560187	0.08941985
 0.35208619	0.22071011	0.13915374
 0.38297834	0.20450472	0.18384708
 0.35096847	0.20194091	0.23760081
 0.34805599	0.19311808	0.28800799
 0.37411985	0.19203477	0.33657856
 0.31852038	0.19756909	0.39222529
 0.34375382	0.20515231	0.43936387
 0.33798193	0.18374592	0.48778932
 0.33295838	0.23151674	0.53388646
 0.31802660	0.20115030	0.58715595
 0.31274020	0.21196729	0.63033688
 0.29564801	0.22573408	0.69066264
 0.30899565	-0.04362080	0.68916847
 0.33241154	0.23240769	0.78730626
 0.32921424	0.19521424	0.83837844
 0.30723241	0.21225709	0.88418205
 0.31722147	0.24131800	0.94037521
 0.33820208	0.47168841	-0.00663605
 0.36548897	0.45610822	0.04072193
 0.36200934	0.44244757	0.08757493
 0.35035612	0.45921763	0.13671182
 0.34047236	0.46850438	0.18748301
 0.37679187	0.46748450	0.23358595
 0.35176033	0.46831367	0.29342085
 0.32370064	0.43020066	0.34384047
 0.34478241	0.44848396	0.38693682
 0.35754548	0.48597924	0.43347175
 0.34771396	0.47133601	0.49396502
 0.35072635	0.46141908	0.53660117
 0.33769006	0.45472350	0.58333263
 0.33745333	0.44935045	0.63743129
 0.33526307	0.44121210	0.69149182
 0.16646551	0.47791551	0.76635717
 0.30630912	0.43933816	0.78328394
 0.34090643	0.45390676	0.83866036
 0.32727356	0.44996818	0.88865130
 0.34400257	0.47058561	0.93830227
 0.33292894	0.72988924	-0.01336870
 0.35772292	0.73754252	0.03538105
 0.38180879	0.69360870	0.09068268
 0.35235816	0.68823980	0.13899868
 0.34021449	0.71114989	0.18101462
 0.34264355	0.69661031	0.23570034
 0.32178069	0.68373323	0.28272698
 0.37407922	0.73866605	0.33852131
 0.32770639	0.72977730	0.38948072
 0.33033611	0.70835143	0.44338371
 0.34075013	0.72892739	0.49102725
 0.32191087	0.72149384	0.54091786
 0.20390274	0.84480040	0.59137562
 0.48286568	0.67859235	0.61154695
 0.30440617	0.73321008	0.69030610
 0.33783766	0.71578498	0.73816523
 0.30947284	0.74000931	0.78759730
 0.31448769	0.73393976	0.84150443
 0.31878281	0.71941676	0.88946389
 0.31561163	0.74090068	0.94070688
 0.59465086	-0.03778540	-0.01070655
 0.60836541	0.96634496	0.03289783
 0.58600257	-0.01842517	0.08922665
 0.58950583	0.94658987	0.13939420
 0.61849792	-0.02506682	0.18935363
 0.59412019	-0.01639369	0.24129561
 0.62027650	-0.03415283	0.28368385
 0.62115543	-0.02964444	0.34380150
 0.59878015	0.94018035	0.39052797
 0.57413293	0.95842634	0.44574934
 0.60058360	0.94709567	0.48802813
 0.57656242	-0.03156274	0.54239462
 0.56624334	0.94575241	0.58940550
 0.56873501	0.96365429	0.64561359
 0.54425777	-0.02561785	0.68929451
 0.56504518	0.96640300	0.73575648
 0.55799720	-0.02110884	0.78869928
 0.58904564	-0.02343297	0.84287257
 0.54061770	-0.00407602	0.88351871
 0.59906621	0.95740231	0.93782964
 0.58374721	0.19739538	-0.01132793
 0.59703059	0.19792191	0.03967899
 0.61204694	0.20657642	0.08872417
 0.64185162	0.22757651	0.13830881
 0.61610990	0.22137262	0.19043239
 0.59302153	0.22318105	0.23827659
 0.59683573	0.19192117	0.29417457
 0.58002422	0.19753385	0.34018629
 0.58716341	0.22204094	0.38906614
 0.58599013	0.19289462	0.43923949
 0.57169101	0.17673732	0.49017735
 0.57652925	0.16822377	0.53524299
 0.60786790	0.19393440	0.59433411
 0.57521501	0.19860017	0.63883426
 0.59656625	0.20575595	0.68346126
 0.55958092	0.22008947	0.74075142
 0.58623474	0.22084692	0.78732202
 0.57026483	0.21449172	0.84015288
 0.57561301	0.23499886	0.88719195
 0.58018176	0.21309621	0.94570680
 0.58286000	0.47694952	-0.01352699
 0.58839474	0.45024596	0.03779378
 0.58180280	0.44644004	0.08795635
 0.60970867	0.46672995	0.13334869
 0.60592763	0.48005064	0.18516215
 0.58520241	0.46265455	0.23383553
 0.60203466	0.44864565	0.29257094
 0.63825715	0.44759674	0.34097484
 0.57067113	0.45554024	0.38607116
 0.57802176	0.45233962	0.43761016
 0.56708080	0.44224442	0.49537213
 0.58672810	0.45037448	0.54245183
 0.55757846	0.47988480	0.58679194
 0.58322069	0.46171344	0.63954154
 0.48835897	0.44649394	0.71425598
 0.57302184	0.45254277	0.74258307
 0.57890483	0.49619052	0.79232691
 0.55026100	0.42801164	0.83165384
 0.60118476	0.47575966	0.88730804
 0.57358568	0.48120319	0.93729068
 0.59562514	0.70830582	-0.00957166
 0.60262752	0.72528317	0.03431581
 0.59777685	0.69715757	0.08562720
 0.60578667	0.68144471	0.13642327
 0.60497408	0.72316049	0.18151295
 0.60598153	0.70894843	0.23806349
 0.56814629	0.68394467	0.28748230
 0.60439366	0.69259296	0.33806444
 0.59811681	0.69721976	0.38974772
 0.59347758	0.70194605	0.44524437
 0.58267343	0.71684217	0.48985397
 0.60438122	0.72196233	0.53841790
 0.58948510	0.71343427	0.59258870
 0.58209716	0.71053630	0.63809961
 0.56360656	0.71237707	0.68880861