Na
  1.000000
16.76437900	0.00000000	0.00000000
0.00000000	16.76437900	0.00000000
0.00000000	0.00000000	89.41002300
Na Cl 
576 576 
Dir
 0.79832564	0.85267126	0.86885186
 0.85748322	0.66659300	0.90649814
 0.90835381	0.88270132	0.94627267
 0.84640656	0.86499315	0.05612628
 0.81808023	0.66522712	0.06715543
 0.78926643	0.89783702	0.14150435
 0.79253392	0.69114989	0.23210854
 0.08243546	0.92881399	0.29417857
 0.72757015	0.73557720	0.34022454
 0.69712984	0.75928463	0.39937246
 0.06968499	0.94456698	0.42141900
 0.85110267	0.95394121	0.56371880
 0.83741009	0.84428775	0.60037947
 0.51320417	0.68504928	0.61862610
 0.94699902	0.58912877	0.69397636
 0.78757718	0.64010072	0.75043566
 0.04325323	0.16975237	0.84697365
 0.92352181	0.24882863	0.87248345
 0.87132060	0.07112665	0.93961844
 0.78708971	0.04902979	0.04651564
 0.72987236	0.22323310	0.13746824
 0.50656300	0.35582001	0.15713656
 0.89059254	0.16045811	0.18480830
 0.01044633	0.09734769	0.30962164
 0.95011738	0.36492604	0.31993180
 0.83416672	0.94340864	0.35409299
 0.94878963	0.21522798	0.49639098
 0.76079530	0.19946244	0.52959201
 0.99240575	0.07712735	0.55905556
 0.60869030	0.96432639	0.65326601
 0.67736077	0.09962094	0.68186895
 0.76745095	0.13693698	0.71241031
 0.76196813	0.54682027	0.85486124
 0.59954421	0.41654473	0.90547554
 0.74302438	0.54712916	0.92053192
 0.71423954	0.58580819	0.00573415
 0.02519127	0.48134730	0.10523643
 0.10747064	0.49828084	0.18062831
 0.98377691	0.70488109	0.18713223
 0.79484578	0.39101677	0.27350756
 0.87840097	0.68561880	0.31007955
 0.80943126	0.42633177	0.43831181
 0.96454865	0.41482411	0.47397703
 0.00551661	0.37568995	0.51194537
 0.41015598	0.40364271	0.59939669
 0.72359317	0.24553315	0.59775329
 0.83415707	0.53699848	0.71779299
 0.77158238	0.42011388	0.75125736
 0.15982826	0.64851802	0.82938402
 0.00785893	0.07286802	0.88860705
 0.27304381	0.87747913	0.98433865
 0.01452756	0.80273700	0.01925810
 0.10088980	0.73313985	0.11116932
 0.18007949	0.80016451	0.16707840
 0.21853215	0.19140374	0.18807610
 0.38308115	0.47140051	0.27390393
 0.01766585	0.00697000	0.33870150
 0.27312875	0.75071771	0.38571487
 0.22991288	0.09990618	0.47717696
 0.40389755	0.99797570	0.49675568
 0.02885564	0.01848755	0.60058128
 0.26503627	0.03714523	0.65100362
 0.19727751	0.97489174	0.71279673
 0.23836010	0.65078644	0.76166616
 0.97762109	0.97093788	0.83449883
 0.39152017	0.15614232	0.88783150
 0.17539447	0.04062302	0.95443022
 0.23526395	0.10485279	0.03457602
 0.95570841	0.14160655	0.10702281
 0.07984994	0.25823342	0.11659362
 0.14936263	0.34409613	0.21087646
 0.18121418	0.11506166	0.28174176
 0.13825797	0.21278339	0.31390570
 0.30821112	0.44393039	0.39640783
 0.40039163	0.36494969	0.42820617
 0.37474783	0.21893950	0.45899368
 0.04355459	0.26357242	0.57551219
 0.05388760	0.35167218	0.64526891
 0.26343921	0.93775544	0.75665180
 0.00032679	0.89906965	0.71896129
 0.04110112	0.33625752	0.81968289
 0.19800679	0.30045842	0.92528683
 0.94421996	0.41055320	0.97369555
 0.07709260	0.48259687	0.03378264
 0.11424937	0.38737667	0.06829938
 0.13770293	0.39845623	0.15600446
 0.25980780	0.51185759	0.20819689
 0.15209873	0.44858693	0.27555729
 0.94452933	0.61266728	0.33540655
 0.37291089	0.55223070	0.42171130
 0.18830083	0.39200329	0.49073772
 0.37511754	0.65744209	0.53415027
 0.14325526	0.72023397	0.60544451
 0.13642007	0.81138597	0.64058938
 0.05460287	0.50696842	0.70755975
 0.99485773	0.50520677	0.74958047
 0.74376765	0.91643757	0.80049692
 0.45260687	0.64639439	0.90728454
 0.31794893	0.50078093	0.93041848
 0.38102316	0.76908712	0.03444471
 0.20983155	0.71831305	0.06922787
 0.41522808	0.72509901	0.09468373
 0.43967396	0.94408482	0.24275263
 0.49109911	0.07065800	0.26798643
 0.57177775	0.96571539	0.29561745
 0.46884250	0.04256981	0.37045369
 0.64102739	0.98631793	0.38458548
 0.71875226	0.71304741	0.49600004
 0.29612574	0.80892449	0.59381311
 0.32233374	0.72051390	0.67232529
 0.43838096	0.93053896	0.67910341
 0.52722495	0.80490407	0.79746712
 0.63550113	0.29448330	0.83590151
 0.69543094	0.16868139	0.85280699
 0.46384618	0.16285733	0.96207791
 0.45782955	0.96473553	0.04566010
 0.40487008	0.25544857	0.08715577
 0.71148848	0.19198243	0.16494090
 0.69696092	0.49889380	0.21924097
 0.37181288	0.08781597	0.30262090
 0.54622179	0.30629068	0.33750514
 0.58925908	0.23694644	0.40288912
 0.77666944	0.29716728	0.45970950
 0.63434279	0.44207366	0.49582629
 0.64823808	0.56213936	0.52194151
 0.31262876	0.31626499	0.70457430
 0.39690067	0.86154225	0.71097958
 0.57105378	0.01217062	0.80930847
 0.38434036	0.53448873	0.85219253
 0.69062864	0.31860677	0.87139931
 0.50258602	0.32249977	0.94378260
 0.38478681	0.33018731	0.99248554
 0.60766710	0.60217944	0.06716737
 0.62113284	0.62820356	0.15187514
 0.33631737	0.42270857	0.17124663
 0.48462687	0.66124532	0.25304741
 0.46447989	0.54387132	0.32109286
 0.72559131	0.67652098	0.42702520
 0.55235136	0.37764900	0.43110022
 0.76770193	0.57678276	0.48431977
 0.33575702	0.54571502	0.60995934
 0.18237735	0.55017946	0.67849347
 0.54653551	0.14961843	0.70851176
 0.46282201	0.26071324	0.75765359
 0.94209826	0.93764009	0.86295064
 0.75982037	0.35180635	0.90426822
 0.97231457	0.03581270	0.97544682
 0.67766967	0.89664971	0.08043140
 0.91096491	0.85649380	0.09938046
 0.89051049	0.07658341	0.21474063
 0.06224891	0.01903038	0.25751880
 0.81078266	0.98078182	0.28521498
 0.78910233	0.87589606	0.31696898
 0.92231327	0.01450304	0.46912737
 0.83307112	0.85752666	0.54159444
 0.95119946	0.13398610	0.59381854
 0.84797997	0.38522360	0.57632484
 0.66542501	0.77978731	0.61259548
 0.76734477	0.73436576	0.69734913
 0.82306110	0.83729425	0.83509157
 0.88937628	0.48107509	0.87909506
 0.71152226	0.40302831	0.94285004
 0.72729021	0.16371933	0.02072738
 0.77988384	0.33153244	0.99886265
 0.90093076	0.15191533	0.13609090
 0.96009583	0.25981794	0.21690800
 0.88210285	0.54045903	0.20041155
 0.93937277	0.48164220	0.28582039
 0.04960366	0.43465157	0.34484162
 0.94502163	0.34670626	0.39305315
 0.95750196	0.26092367	0.53159558
 0.88825172	0.45991795	0.53466248
 0.90450180	0.22942589	0.63794872
 0.66771274	0.27868832	0.68990677
 0.79755341	0.00907278	0.65790391
 0.96437055	0.38961372	0.78831078
 0.91285687	0.71061972	0.87425354
 0.52628863	0.74055325	0.95013195
 0.72439435	0.70249201	0.97119127
 0.74188534	0.58814418	0.03253670
 0.80266460	0.53615868	0.12295365
 0.06655312	0.65221024	0.16186133
 0.95235631	0.60767675	0.23527046
 0.66764034	0.68072480	0.26322545
 0.88003231	0.77527943	0.38382170
 0.12201268	0.91434097	0.45888961
 0.03845740	0.54525650	0.49855383
 0.70262232	0.01138744	0.53918454
 0.87958828	0.64915511	0.61554201
 0.03490442	0.52067549	0.65327958
 0.67540607	0.67402088	0.78928180
 0.90701689	0.72207767	0.80925961
 0.10702854	0.77488849	0.86819486
 0.10807491	0.96734431	0.92421319
 0.14680027	0.94665876	0.01114661
 0.03371697	0.97452730	0.08742128
 0.13204635	0.03262306	0.11469503
 0.89239763	0.87704957	0.17174707
 0.08371929	0.05657592	0.17798855
 0.41261457	0.90636143	0.31171480
 0.38869670	0.16237662	0.34199735
 0.13505419	0.06938334	0.40724739
 0.34432731	0.00762171	0.44746182
 0.21167090	0.25383316	0.56040757
 0.46477430	0.25157246	0.63229094
 0.21843321	0.88651903	0.67796226
 0.04025124	0.92290064	0.67703196
 0.08558760	0.71056180	0.80026706
 0.11886585	0.50112844	0.86448816
 0.90667949	0.29946804	0.93312900
 0.08688205	0.29613008	0.02558202
 0.07484879	0.19273150	0.07088556
 0.21361450	0.25763060	0.09178969
 0.91966983	0.36819643	0.17720124
 0.28756558	0.37715960	0.24481593
 0.47230305	0.29415462	0.30708324
 0.23589814	0.59358357	0.35965394
 0.17108495	0.33860896	0.41465174
 0.40617707	0.45575418	0.50897440
 0.13941632	0.49543807	0.52563735
 0.22792777	0.59912914	0.57538188
 0.35976466	0.13091697	0.72065536
 0.96750933	0.25231283	0.70799956
 0.23730360	0.02427584	0.81614994
 0.50913066	0.44974672	0.82208464
 0.98040309	0.53561812	0.94175314
 0.14519452	0.53026561	0.00278028
 0.33591967	0.56275232	0.02761736
 0.22684327	0.64745620	0.10385637
 0.49774993	0.89948283	0.19561619
 0.11556843	0.71856885	0.21821113
 0.13310382	0.64820430	0.33770695
 0.07202098	0.87644627	0.38441625
 0.20110053	0.76964698	0.47997689
 0.06507816	0.88176982	0.50183520
 0.20827695	0.88433266	0.55152090
 0.10328613	0.45275649	0.55403034
 0.21481773	0.72557200	0.71006466
 0.17676373	0.37689849	0.77709385
 0.01369534	0.51671781	0.84002992
 0.42576225	0.85293672	0.89775344
 0.55077312	0.91869103	0.95963742
 0.49799608	0.94154515	0.99876597
 0.45974033	0.90445888	0.07826032
 0.43387886	0.92460003	0.11754021
 0.69902663	0.99227998	0.18740462
 0.18826608	0.01339837	0.22479650
 0.71555233	0.22212688	0.23296825
 0.50636994	0.07611476	0.32403849
 0.47971887	0.16315850	0.41803446
 0.73667762	0.13840180	0.42737904
 0.29932083	0.30287985	0.52627172
 0.43427704	0.04204773	0.64798378
 0.49517745	0.10402409	0.68020293
 0.73916324	0.95019412	0.70161781
 0.51100332	0.09290544	0.87124819
 0.47402609	0.25594328	0.85928014
 0.39294058	0.29976390	0.92285495
 0.49823258	0.16405863	0.99468846
 0.39582631	0.35209063	0.04306088
 0.78487437	0.40825678	0.16117628
 0.54470146	0.13526076	0.23427229
 0.47188557	0.44575189	0.20893352
 0.53789137	0.55318151	0.28085852
 0.59527765	0.55051249	0.39213643
 0.42673043	0.43142462	0.47176713
 0.51276979	0.61130623	0.49630139
 0.53155909	0.37791252	0.54048225
 0.68334072	0.31697158	0.63931340
 0.40095150	0.33259957	0.67769891
 0.32962938	0.39952335	0.76540996
 0.76437169	0.13263856	0.80333667
 0.49003730	0.85792242	0.84476374
 0.16681742	0.63580037	0.93713244
 0.44406457	0.60163888	0.99907361
 0.36949619	0.62595445	0.05824686
 0.31294730	0.26301014	0.16213915
 0.45726389	0.72433161	0.14676305
 0.53767418	0.76673182	0.22629782
 0.35714342	0.70098133	0.34173581
 0.44883453	0.72268097	0.30881080
 0.73187050	0.87912011	0.42480715
 0.78876930	0.79152037	0.46742425
 0.36844210	0.69340866	0.56598300
 0.30637997	0.68498654	0.62845754
 0.60432238	0.59120414	0.72769592
 0.04906647	0.24682035	0.78546831
 0.44681804	0.64216161	0.80727323
 0.58419616	0.75583373	0.89415534
 0.11871864	0.72089519	0.98763875
 0.00050448	0.10091876	0.03151962
 0.04811079	0.78210883	0.06795043
 0.96480508	0.64577660	0.09515612
 0.90144088	0.56542134	0.16252467
 0.85762318	0.97665667	0.24044681
 0.08109950	0.73533105	0.29179672
 0.22490884	0.04750889	0.36723566
 0.25747036	0.11293610	0.42936632
 0.82187863	0.06571332	0.50221075
 0.02870342	0.89016299	0.53230145
 0.93977289	0.67513579	0.57790127
 0.09581964	0.68962956	0.67902829
 0.88332876	0.69095201	0.66578879
 0.22359798	0.55321529	0.79501831
 0.18850740	0.23740978	0.88773286
 0.85374273	0.23209539	0.96665590
 0.19955752	0.39632150	0.99488885
 0.83081718	0.28503556	0.03247987
 0.80299280	0.03838539	0.10816215
 0.15671039	0.17909200	0.14219211
 0.18796202	0.20198956	0.23776633
 0.05825503	0.55082621	0.30381635
 0.15283814	0.25003669	0.35342694
 0.92068386	0.11465624	0.42277643
 0.21636895	0.29503834	0.44513970
 0.92394460	0.03034923	0.52827620
 0.31382812	0.24011258	0.65701886
 0.12323522	0.15473396	0.66587928
 0.76424620	0.87883535	0.73147954
 0.94443136	0.96453099	0.80090958
 0.06167215	0.59759433	0.89710187
 0.85189421	0.64974393	0.95759774
 0.87880639	0.50511990	0.02497950
 0.69650723	0.41066179	0.02246970
 0.18251973	0.56698993	0.12683954
 0.29571066	0.65897207	0.16457620
 0.11695265	0.50049135	0.23244066
 0.01931871	0.63090154	0.26645072
 0.99361753	0.56168085	0.37370248
 0.93880905	0.56069626	0.40310631
 0.33072401	0.82462487	0.50522788
 0.98976478	0.82092299	0.56880647
 0.75264346	0.52295839	0.59723837
 0.88011918	0.46150584	0.63936950
 0.77914057	0.26525781	0.72596836
 0.95014537	0.56874192	0.78588459
 0.34916002	0.98017833	0.87423273
 0.03874650	0.73243036	0.94388956
 0.58090453	0.64012968	0.02682552
 0.17772805	0.68016976	0.03582105
 0.27092549	0.77761542	0.12952002
 0.52810336	0.09099755	0.13867817
 0.44301337	0.86522964	0.27371389
 0.58937492	0.81807540	0.31244691
 0.20707614	0.79882276	0.35346585
 0.37724310	0.00337688	0.40874419
 0.60059155	0.08263576	0.51745383
 0.37701867	0.18203709	0.60058399
 0.18099844	0.94868682	0.61552934
 0.32303985	0.14131986	0.67944005
 0.43986847	0.57203838	0.73368402
 0.21440073	0.87397514	0.81465948
 0.35072137	0.10533640	0.84429679
 0.36755210	0.91299970	0.95646193
 0.37536851	0.96554314	0.01936642
 0.39541654	0.12448671	0.06099765
 0.27508925	0.14128607	0.11906958
 0.51858081	0.15210597	0.11236567
 0.33419760	0.10911742	0.23703603
 0.61846382	0.29058017	0.29019224
 0.31717332	0.37282836	0.35080619
 0.51722941	0.72260375	0.42456644
 0.65736004	0.06016678	0.46134566
 0.08980446	0.68767486	0.55488191
 0.39036134	0.23432520	0.56567894
 0.24180231	0.38530951	0.65967310
 0.05383837	0.10305591	0.74821851
 0.40698309	0.97975215	0.82093082
 0.30598517	0.75699690	0.86762293
 0.27770904	0.24653994	0.96879359
 0.25816295	0.35839733	0.02899841
 0.23853578	0.27262198	0.05788985
 0.25003331	0.40264557	0.11778726
 0.39546239	0.52222477	0.12482148
 0.29297890	0.62345436	0.23773646
 0.38251887	0.92813636	0.34862253
 0.42799448	0.51320417	0.36737593
 0.25353875	0.53387095	0.46161986
 0.26556042	0.60398453	0.48876944
 0.58090936	0.77301583	0.55252269
 0.45735366	0.40799905	0.63683110
 0.16430092	0.50963744	0.62587389
 0.30287116	0.14190965	0.76727598
 0.23465871	0.23096890	0.80215932
 0.60316886	0.63450206	0.92013067
 0.95993709	0.82729389	0.98742754
 0.84265642	0.97606519	0.00841708
 0.74392210	0.71703405	0.10036595
 0.57000162	0.74944836	0.11815920
 0.48284109	0.06980131	0.17839850
 0.60075565	0.85294154	0.24992984
 0.88767738	0.79391911	0.28273811
 0.64707974	0.90251865	0.34807051
 0.90498979	0.78076225	0.41930774
 0.67662233	0.85304773	0.52404101
 0.72728056	0.03461551	0.59417057
 0.92041600	0.09484373	0.62792271
 0.84015150	0.87501282	0.68415216
 0.52614383	0.78244668	0.73163520
 0.47963633	0.69285845	0.76384529
 0.84755042	0.33018490	0.82715059
 0.58359768	0.21166318	0.90751893
 0.65890933	0.08745929	0.98299371
 0.53478797	0.28298240	0.05353050
 0.76712758	0.07404036	0.14110798
 0.77253801	0.32566736	0.20346487
 0.57579817	0.34651465	0.23170131
 0.81433974	0.25987344	0.31078179
 0.67977399	0.34948291	0.37260477
 0.40533727	0.72076970	0.46191668
 0.80184894	0.19243419	0.48666723
 0.82336517	0.16939570	0.56579568
 0.57643043	0.13815951	0.62056995
 0.56983752	0.23724713	0.65979164
 0.78014447	0.30297396	0.78208921
 0.58756983	0.37922193	0.77873996
 0.88861853	0.48550045	0.90916414
 0.70761285	0.25573671	0.92642011
 0.63727726	0.37891497	0.98575482
 0.50920788	0.49620065	0.03115085
 0.63267767	0.57996338	0.11047160
 0.98457844	0.00843617	0.15117742
 0.54329697	0.65106637	0.19007967
 0.77584895	0.56059008	0.29490887
 0.78513983	0.63898099	0.37021206
 0.80324377	0.35185896	0.40681572
 0.62050058	0.59384902	0.46264879
 0.56798900	0.56813379	0.58426040
 0.73539379	0.56925835	0.64123733
 0.60966524	0.40764962	0.71508717
 0.62712727	0.03718124	0.73507222
 0.61518668	0.75396108	0.83173147
 0.83257400	0.59337603	0.82760487
 0.02917231	0.12970795	0.92454061
 0.07725718	0.33149190	0.96244976
 0.98452062	0.96463316	0.04904907
 0.91272025	0.05492480	0.07412295
 0.98628343	0.84157530	0.13309188
 0.80527088	0.84811994	0.20733537
 0.28457898	0.00818828	0.27460346
 0.80660780	0.04127019	0.32275798
 0.04485464	0.04270832	0.37265816
 0.10022907	0.11019710	0.44015973
 0.30654311	0.27956577	0.48899659
 0.10560716	0.01125645	0.56919469
 0.06969271	0.99309632	0.63774420
 0.03179967	0.34577283	0.67303025
 0.92601321	0.77046747	0.75389802
 0.91088524	0.14752327	0.77406858
 0.04525851	0.39510379	0.89585484
 0.77440584	0.46437660	0.97427563
 0.97465848	0.24803758	0.00237326
 0.87032635	0.28262765	0.08528776
 0.98420719	0.39761595	0.13557598
 0.20868961	0.81974052	0.26675659
 0.95955759	0.29914998	0.28025310
 0.90932293	0.26652909	0.35108129
 0.12851003	0.41928711	0.38123352
 0.95215341	0.30611549	0.43792268
 0.04201713	0.08044118	0.49995560
 0.86635903	0.32191047	0.60795034
 0.92889025	0.12517544	0.66908192
 0.16565666	0.20639657	0.71824004
 0.99109282	0.34233689	0.75450434
 0.61766746	0.94526633	0.85979868
 0.24716158	0.56837511	0.90233795
 0.90121069	0.63530325	0.99248062
 0.96454788	0.66909310	0.04771082
 0.99407290	0.52965748	0.06646105
 0.95832106	0.61276864	0.12984399
 0.94721090	0.83654133	0.22520192
 0.06390389	0.81436387	0.24652630
 0.27193614	0.67274188	0.30620453
 0.07931469	0.72480943	0.41565714
 0.14430163	0.49670742	0.42284521
 0.89189085	0.85713571	0.50524417
 0.95133895	0.71030117	0.52845086
 0.00000232	0.85223206	0.60866525
 0.02550330	0.66896278	0.72376117
 0.73006059	0.45961822	0.81306947
 0.60236767	0.97942463	0.89939141
 0.24115075	0.09703976	0.91812221
 0.45075448	0.77519255	0.98709560
 0.24730155	0.85955376	0.04545150
 0.29332737	0.96238496	0.09653980
 0.35077253	0.10096896	0.15205342
 0.07571948	0.16943817	0.21884370
 0.44792716	0.27455545	0.24931628
 0.22643254	0.07340665	0.32345570
 0.25959351	0.23191054	0.39031747
 0.58376178	0.99489586	0.43353274
 0.34894331	0.06845135	0.53919450
 0.11163682	0.22070115	0.63042039
 0.23971923	0.32235739	0.59297422
 0.34336830	0.80680085	0.76882165
 0.09176688	0.80528536	0.75269986
 0.15459593	0.05815706	0.85241877
 0.47267083	0.99637550	0.91776774
 0.20136647	0.11321603	0.99054900
 0.39280544	0.17871264	0.02142203
 0.38662134	0.28442453	0.12938246
 0.56666656	0.22098929	0.19199456
 0.09127121	0.27903293	0.17649357
 0.33348473	0.32783588	0.28359239
 0.25790136	0.50274046	0.30959087
 0.47797845	0.37789853	0.39506759
 0.01018126	0.74911051	0.48006467
 0.34206854	0.45142825	0.55791622
 0.44741314	0.93623463	0.57621443
 0.07848792	0.34645867	0.61673927
 0.43407868	0.06177350	0.78121411
 0.30231853	0.55364002	0.82648273
 0.34378386	0.74996962	0.81855260
 0.98126316	0.90140858	0.90636239
 0.10287685	0.53122124	0.96281581
 0.25582406	0.59021954	0.96955656
 0.25916058	0.48091341	0.06855422
 0.38615993	0.88781252	0.16747296
 0.29115982	0.01550462	0.19405786
 0.42921991	0.45661281	0.24605301
 0.19346174	0.59332294	0.40149006
 0.30520329	0.76237837	0.42328683
 0.52774138	0.85569744	0.46526231
 0.50118153	0.92530324	0.52556405
 0.39480455	0.04984353	0.62236990
 0.14516846	0.81804644	0.58366584
 0.24582418	0.50021141	0.73005695
 0.39065961	0.56548408	0.78245390
 0.76430895	0.02610043	0.83300294
 0.76109454	0.16222314	0.90267640
 0.76304442	0.87626769	0.96618777
 0.62891788	0.79018345	0.05030605
 0.60660045	0.94163251	0.11805060
 0.51641857	0.91837683	0.15545605
 0.88801523	0.20397274	0.24497973
 0.66160730	0.07524842	0.25760296
 0.96168238	0.85914351	0.31958611
 0.62660119	0.14816181	0.35540155
 0.84318733	0.93958079	0.39842678
 0.64072333	0.17302373	0.55649997
 0.47855956	0.92202320	0.60858743
 0.43945194	0.84296048	0.64174139
 0.60999344	0.76322783	0.65912741
 0.69311908	0.82373680	0.75735676
 0.62036544	0.29853171	0.74370007
 0.30546971	0.36586430	0.89053008
 0.66023177	0.09414969	0.94454249
 0.58775806	0.30254296	0.01488834
 0.61324163	0.37832277	0.12127496
 0.66833535	0.49441487	0.17940119
 0.90393763	0.42739648	0.24187664
 0.68042073	0.51854220	0.25394060
 0.77028890	0.51844567	0.34078652
 0.87479080	0.43339719	0.36209732
 0.55834579	0.27629586	0.46712652
 0.83524302	0.41768763	0.49843166
 0.67254400	0.39421138	0.57448687
 0.72364143	0.16979388	0.64246536
 0.44735474	0.40191196	0.72166077
 0.51954610	0.91529033	0.75520658
 0.64251394	0.55088895	0.89014005
 0.69855364	0.75824695	0.93759460
 0.54026597	0.56162293	0.95873256
 0.76889888	0.75306336	0.01743606
 0.77844557	0.52968161	0.09668188
 0.62896614	0.77192023	0.18120205
 0.69993882	0.99541162	0.22642361
 0.55565747	0.58823105	0.23487952
 0.68453285	0.66115362	0.31371023
 0.53357654	0.89160609	0.40557774
 0.91790625	0.63926575	0.49803529
 0.63970013	0.54582602	0.55413532
 0.71718367	0.78897202	0.56938654
 0.84736219	0.45825090	0.67518857
 0.65544395	0.50136976	0.68694575
 0.57709165	0.54414160	0.75952232
 0.89417858	0.55015533	0.85635080
 0.63144210	0.66192585	0.94284922
 0.91462428	0.87351180	0.00980493
 0.77452650	0.96458745	0.09037316
 0.99092722	0.78462340	0.11005894
 0.58109759	0.14731574	0.17568182
 0.89643394	0.94809317	0.25890429
 0.89952627	0.88367144	0.29712963
 0.88185187	0.93095306	0.33271069
 0.04232810	0.01672378	0.45049614
 0.85840024	0.86718917	0.47755523
 0.72103516	0.86769112	0.55169013
 0.92927491	0.75807320	0.61240996
 0.03595229	0.07156392	0.62266673
 0.80651610	0.75690037	0.74876782
 0.74075596	0.82024247	0.82035075
 0.01596535	0.15917283	0.87450150
 0.66138046	0.14535862	0.92074043
 0.08367054	0.03871252	0.98671878
 0.90741649	0.16181868	0.08542540
 0.81110603	0.14931147	0.12343419
 0.98293711	0.11757671	0.20182962
 0.82000597	0.50210338	0.27695816
 0.71963549	0.96369345	0.29644729
 0.73907153	0.02567903	0.34045983
 0.87206870	0.05492576	0.35739246
 0.93294879	0.94476100	0.54407764
 0.58572131	0.47848813	0.57112406
 0.17073310	0.31507962	0.63156878
 0.66600901	0.07004746	0.65833105
 0.92018626	0.98471826	0.66381417
 0.66688742	0.80231710	0.78486561
 0.74140270	0.33151458	0.84884057
 0.79166516	0.49122460	0.95173345
 0.71453395	0.44678667	0.99455317
 0.81167555	0.63415938	0.01544950
 0.07441296	0.48394151	0.14204099
 0.17824206	0.35343913	0.23240899
 0.04689376	0.39767580	0.27128137
 0.94413501	0.69335557	0.28226844
 0.89937999	0.58065838	0.35756168
 0.06693779	0.58945697	0.41069799
 0.90247422	0.52369201	0.48234969
 0.93530795	0.53319525	0.51248019
 0.66598487	0.21674155	0.62213371
 0.00037165	0.36252537	0.69672742
 0.69420020	0.35588613	0.72815202
 0.81350960	0.47316940	0.83434589
 0.36563456	0.80185859	0.88364156
 0.96906967	0.82244815	0.92899752
 0.91947388	0.75986380	0.03886542
 0.07145822	0.72976135	0.04523332
 0.30360381	0.79061783	0.16628566
 0.88512902	0.84087064	0.15121724
 0.07082451	0.88288473	0.22606163
 0.22916961	0.69816270	0.34588775
 0.24721757	0.92760835	0.35347852
 0.44563364	0.03597227	0.42650938
 0.46690903	0.88016262	0.49641180
 0.07593812	0.21585976	0.55783568
 0.17897472	0.66987981	0.63401307
 0.13443109	0.04844821	0.65558903
 0.29699256	0.59240109	0.74173360
 0.25101887	0.47321380	0.77822685
 0.03140540	0.99749615	0.90770082
 0.90037762	0.40403993	0.00524884
 0.01065140	0.21077801	0.02295403
 0.07519726	0.38288809	0.11939718
 0.15720944	0.14666513	0.12058720
 0.05466562	0.76516323	0.16890189
 0.11646904	0.09599773	0.24157348
 0.33764560	0.07715245	0.32389461
 0.35589048	0.40186224	0.37237943
 0.11837838	0.30768649	0.39132107
 0.99140036	0.15701493	0.51406296
 0.76092079	0.29235291	0.56865081
 0.45273187	0.13862333	0.63284477
 0.11344528	0.46492537	0.66633448
 0.23507041	0.04465893	0.72659731
 0.85215001	0.94538554	0.84633294
 0.36154030	0.59329881	0.91491106
 0.04915866	0.43412115	0.95603335
 0.10914107	0.40906038	0.01659563
 0.14554299	0.35635237	0.04381869
 0.16367203	0.69349554	0.13136613
 0.20483377	0.60699622	0.16605761
 0.04085353	0.57512247	0.24822490
 0.06608013	0.56215867	0.28277431
 0.43015479	0.75328538	0.41083011
 0.19868780	0.72463568	0.40876047
 0.52468142	0.78984560	0.53059289
 0.09160134	0.80476410	0.55638594
 0.23598839	0.73416788	0.57680266
 0.94749518	0.59369940	0.66816882
 0.90455541	0.40173434	0.74403490
 0.09159796	0.42991636	0.84070773
 0.43904990	0.00884642	0.89019525
 0.26146520	0.56562887	0.94946518
 0.52577220	0.67273705	0.98937926
 0.54570536	0.87035531	0.04916671
 0.51993222	0.66041035	0.09856690
 0.59164817	0.86769595	0.22612859
 0.61694350	0.99277377	0.26913029
 0.51258639	0.96710738	0.31795629
 0.51215683	0.15533920	0.34567690
 0.47602616	0.97978512	0.39120614
 0.65893346	0.12419230	0.53725789
 0.72757015	0.14057080	0.58470021
 0.32236367	0.92749782	0.66711817
 0.39554927	0.73835722	0.64741909
 0.19687981	0.82851497	0.75794498
 0.42602384	0.71754565	0.78444119
 0.67764071	0.05302029	0.84318912
 0.61307753	0.83332210	0.95191887
 0.45507559	0.04976679	0.00259853
 0.30307242	0.23100172	0.07570129
 0.64887035	0.13758179	0.14351516
 0.61634502	0.30033149	0.21174251
 0.45358760	0.08953080	0.24503403
 0.55359658	0.24981274	0.24595165
 0.72843890	0.31069867	0.29552605
 0.28324061	0.46387755	0.47881583
 0.58202426	0.10517230	0.43118981
 0.74092971	0.51981638	0.50313743
 0.77144241	0.36966849	0.59350452
 0.63673187	0.03125757	0.70541048
 0.43603049	0.82863081	0.74834883
 0.69790690	0.02005696	0.80817275
 0.37878032	0.33913262	0.87504267
 0.32061988	0.40929205	0.92128050
 0.29049329	0.40274982	0.00389034
 0.33670638	0.46227711	0.04461813
 0.66447420	0.48033472	0.15678362
 0.37713450	0.62712727	0.14635129
 0.25873682	0.42898679	0.28835880
 0.53173284	0.37813068	0.31904585
 0.48272525	0.50979671	0.38612572
 0.62473819	0.84542679	0.41636029
 0.51797268	0.70469286	0.47145130
 0.43265247	0.64858076	0.55131367
 0.55260233	0.30951088	0.63938036
 0.42402088	0.35630217	0.69999703
 0.49879244	0.32754050	0.74107932
 0.61313544	0.38531048	0.82212808
 0.62805877	0.89767774	0.87834757
 0.88223316	0.89488324	0.88233661
 0.55251063	0.99994503	0.97764723
 0.85972751	0.97155151	0.04549015
 0.63362847	0.83445631	0.10023745
 0.86978579	0.01823745	0.13610267
 0.74950145	0.04609788	0.20724940
 0.14123154	0.99883410	0.27472382
 0.85956824	0.06411384	0.30237566
 0.03809030	0.06943739	0.41632862
 0.97095130	0.89876852	0.40889441
 0.80962914	0.97399856	0.52171708
 0.87914907	0.17196432	0.60951410
 0.50928511	0.81733213	0.60764446
 0.73450090	0.46974601	0.66530826
 0.99445385	0.71747325	0.68888779
 0.92839795	0.02771381	0.78010645
 0.15022221	0.32088726	0.90236781
 0.65459932	0.23748073	0.99160575
 0.70277194	0.30601365	0.02154917
 0.99563582	0.19869841	0.12611105
 0.81615448	0.13453052	0.15811210
 0.83261261	0.21303147	0.21409539
 0.68442667	0.71970789	0.29744184
 0.05662901	0.36326768	0.32407017
 0.00617899	0.45330429	0.38486964
 0.90312196	0.36438596	0.45831858
 0.88412512	0.33986721	0.52111257
 0.05489053	0.42554361	0.53055579
 0.39651697	0.29088085	0.60750329
 0.66645786	0.21089963	0.71367091
 0.69945135	0.33884014	0.76113586
 0.10964447	0.58445196	0.81329571
 0.63215641	0.50179931	0.92032722
 0.84158012	0.76608025	0.97728977
 0.62974802	0.52357134	0.02901479
 0.89831966	0.54148706	0.10327086
 0.89036087	0.49514849	0.13827365
 0.19999383	0.66564702	0.22490238
 0.98460793	0.74334775	0.23773646
 0.66493271	0.63613822	0.34687506
 0.86624802	0.59526317	0.38601893
 0.02047257	0.72910978	0.50399533
 0.83496791	0.74357942	0.49727965
 0.87953036	0.82729389	0.57187970
 0.65615826	0.68528095	0.62532730
 0.90657286	0.56695132	0.75227453
 0.74686140	0.57586574	0.80174666
 0.03344804	0.01233916	0.85848378
 0.89318916	0.13782649	0.91387000
 0.17044303	0.18111041	0.91896409
 0.18650106	0.85459701	0.06237708
 0.17243538	0.99424699	0.09527015
 0.29119167	0.28444529	0.10791872
 0.16560791	0.97406497	0.18145996
 0.04660345	0.18484655	0.29666448
 0.14332138	0.59436062	0.31947118
 0.19223775	0.18242224	0.42339995
 0.98998211	0.18282959	0.44038959
 0.34781103	0.12080849	0.47578966
 0.26569894	0.00305643	0.63036700
 0.11519583	0.76079530	0.72509327
 0.08309041	0.92388862	0.69977894
 0.15880844	0.66664127	0.77719973
 0.93337159	0.38165880	0.81506671
 0.97319269	0.42121286	0.91815705
 0.96858702	0.28600809	0.95806443
 0.15314510	0.18800545	0.05051682
 0.41963413	0.17459039	0.13661035
 0.25296102	0.23526008	0.14345362
 0.12377481	0.24476285	0.19918172
 0.23268277	0.21271630	0.29337768
 0.36367310	0.44628521	0.32363941
 0.26532731	0.58143544	0.38204165
 0.05860350	0.35506033	0.49162548
 0.30148549	0.38647317	0.50597447
 0.93785052	0.34275003	0.58483595
 0.97869849	0.30283786	0.62634538
 0.06337202	0.20931898	0.72854749
 0.20297801	0.08898975	0.79224915
 0.27149694	0.58770497	0.84797905
 0.07123524	0.70467355	0.88434561
 0.14289666	0.58289302	0.98220377
 0.12073899	0.84143533	0.99914070
 0.10632437	0.50789992	0.05834830
 0.39939449	0.80838875	0.13244574
 0.41035339	0.96950057	0.18353774
 0.14737607	0.46745876	0.20461055
 0.23511336	0.75538005	0.28595252
 0.27301968	0.11856565	0.39964395
 0.24005321	0.08923542	0.44960295
 0.29279598	0.93169537	0.48895224
 0.06795809	0.88667830	0.62918784
 0.84588530	0.60235319	0.59284300
 0.98603921	0.56024258	0.72008705
 0.08213670	0.34750600	0.79736215
 0.82639617	0.20318410	0.81931819
 0.46301024	0.96208939	0.94108637
 0.34995783	0.88949694	0.00352704
 0.36381789	0.86966996	0.04170969
 0.44036028	0.86583294	0.09810537
 0.42172591	0.00319322	0.15214211
 0.67629413	0.11378024	0.23681160
 0.54858674	0.15750530	0.27797985
 0.47959772	0.17233934	0.31030488
 0.43109498	0.89325673	0.45898463
 0.54982714	0.12835751	0.39933536
 0.68160321	0.23613319	0.47230015
 0.40665441	0.39093713	0.53558191
 0.46509140	0.95678123	0.63256152
 0.29630962	0.90113199	0.69637992
 0.51691570	0.00557105	0.77106594
 0.59282099	0.23134199	0.85308753
 0.55319598	0.11602067	0.89343318
 0.37906266	0.27673313	0.94556572
 0.43166450	0.23143224	0.10780831
 0.47169734	0.41063911	0.12251928
 0.56306604	0.69056589	0.13949354
 0.52615349	0.10619212	0.21003123
 0.36342357	0.36451773	0.26371865
 0.74359873	0.44612642	0.35994262
 0.38706826	0.68597596	0.43858782
 0.22619942	0.65906860	0.46785591
 0.42956162	0.32209580	0.46624599
 0.24968339	0.48011270	0.63887178
 0.41708819	0.12772139	0.66221783
 0.31787605	0.37795789	0.73852734
 0.46764072	0.36504960	0.77226410
 0.49087227	0.93911939	0.80245796
 0.57169087	0.62541871	0.89688016
 0.34833325	0.61536526	0.98641272
 0.28696806	0.68947029	0.03747278
 0.38430031	0.73341978	0.06980939
 0.47695525	0.82339413	0.16341152
 0.46947090	0.84793171	0.25228725
 0.48532670	0.82902657	0.30003997
 0.38669952	0.57798937	0.34776282
 0.67432978	0.38566184	0.44694509
 0.63149519	0.65947402	0.43516166
 0.62134038	0.68045934	0.51054630
 0.33643175	0.85186525	0.56939921
 0.22651073	0.65648646	0.66674804
 0.27609363	0.31376876	0.67774959
 0.53283809	0.71057145	0.80922431
 0.13168389	0.69879013	0.84954282
 0.73215526	0.66279460	0.91838799
 0.88466086	0.54572949	0.97192401
 0.74443853	0.61000309	0.05401899
 0.98584359	0.63747514	0.07176401
 0.84485244	0.79866349	0.18837383
 0.97650420	0.73734367	0.20757699
 0.31117117	0.86625767	0.25853959
 0.08328925	0.97752693	0.31726761
 0.19469585	0.83769002	0.38041725
 0.10419012	0.10183096	0.48107732
 0.89885057	0.80894379	0.52598395
 0.10663471	0.93933802	0.59267830
 0.06635427	0.74288442	0.58621329