Na
  1.000000
16.76437900	0.00000000	0.00000000
0.00000000	16.76437900	0.00000000
0.00000000	0.00000000	89.41002300
Na Cl 
576 576 
Dir
 0.86569872	0.92041453	0.90218706
 0.88026966	0.91655273	0.95979388
 0.85968565	0.84145229	0.02284584
 0.89098930	0.88537500	0.08726333
 0.91786973	0.92468035	0.14964501
 0.06613067	0.05631667	0.22222000
 0.84785889	0.88625650	0.28479451
 0.91166776	0.96076381	0.33879016
 0.92839523	0.86123352	0.40522024
 0.96760691	0.90755936	0.45593685
 0.93605061	0.91067083	0.52483335
 0.86639133	0.90938007	0.58015715
 0.94458477	0.91134770	0.64947473
 0.85033548	0.90499882	0.71423823
 0.87939866	0.88350707	0.77657171
 0.86085573	0.91063935	0.84832717
 0.84486285	0.19198700	0.89835412
 0.83154594	0.21374582	0.97013652
 0.99611074	0.29402191	0.02191820
 0.91622742	0.16815561	0.08990959
 0.79143781	0.24503531	0.16700540
 0.88885377	0.26489104	0.22052489
 0.91158381	0.26548920	0.27735589
 0.89250569	0.28089336	0.33998451
 0.94776928	0.25288536	0.40065633
 0.93718922	0.28939090	0.47232719
 0.96846873	0.11845175	0.52801500
 0.92833226	0.26122285	0.59369443
 0.90111078	0.22831519	0.64027803
 0.86258725	0.26833570	0.71200792
 0.80433495	0.16637792	0.77491299
 0.89461499	0.22215625	0.84235247
 0.91969044	0.45971090	0.90727043
 0.89335046	0.50819693	0.96271915
 0.02513343	0.53612886	0.05812216
 0.92053521	0.48634629	0.09208746
 0.81176472	0.76155609	0.15760210
 0.88603088	0.60105534	0.21926364
 0.92588716	0.56348151	0.28708089
 0.89353935	0.57615304	0.33871539
 0.91521474	0.61595160	0.39190826
 0.91153134	0.60537888	0.46053126
 0.89202296	0.60466528	0.52766870
 0.92038829	0.54568366	0.58271999
 0.89948946	0.62067391	0.64182656
 0.84116896	0.55157080	0.72447186
 0.92168430	0.53166365	0.78836665
 0.88243143	0.49365852	0.85452127
 0.22478133	0.89983576	0.90725075
 0.25503611	0.90909148	0.95958364
 0.23182281	0.86978614	0.02697038
 0.27592812	0.92336859	0.07728942
 0.22708582	0.86284435	0.16185415
 0.33653265	0.01858060	0.25957739
 0.18995693	0.91035601	0.28269603
 0.22037227	0.95389217	0.33983006
 0.22979275	0.94832048	0.40345233
 0.26200046	0.05146219	0.45103057
 0.12075308	0.88793030	0.52462773
 0.24488629	0.92317445	0.57036230
 0.21361779	0.01965603	0.66227021
 0.31880877	0.90021879	0.73262670
 0.22083610	0.88536976	0.77058716
 0.27520246	0.85322658	0.83099532
 0.24967209	0.18588106	0.89810128
 0.06137059	0.06703631	0.96829816
 0.19750633	0.26821869	0.02278238
 0.16117604	0.16887707	0.08018262
 0.26224707	0.28842072	0.16320689
 0.27144875	0.28284158	0.21135672
 0.16869973	0.22825013	0.27536170
 0.22146522	0.23803737	0.34470289
 0.24039748	0.25204321	0.39760749
 0.19400815	0.30870409	0.47621424
 0.32092070	0.35256960	0.51972539
 0.26603961	0.24688173	0.57905135
 0.17439850	0.23947977	0.65615778
 0.29930932	0.24445289	0.72267935
 0.03720643	0.23581474	0.76186664
 0.20372351	0.14940962	0.82398368
 0.21082009	0.41884405	0.91378524
 0.24775273	0.51689962	0.95989049
 0.22417687	0.61488646	0.01272623
 0.18930840	0.45573262	0.08549030
 0.15015890	0.57857716	0.16565069
 0.17658808	0.49788708	0.23407397
 0.27673773	0.57517710	0.27542958
 0.23073406	0.56113610	0.34193837
 0.19278350	0.61439849	0.39249658
 0.27651264	0.62291963	0.45382066
 0.28140232	0.72377763	0.48776225
 0.17772930	0.56996682	0.58119803
 0.21543063	0.57695058	0.63363926
 0.29590611	0.64276906	0.69709330
 0.17121304	0.42913973	0.76124978
 0.17619193	0.54019529	0.84759423
 0.51762161	0.84378197	0.89755920
 0.64840435	0.84669406	0.96700524
 0.52226836	0.76331384	0.01868263
 0.64819447	0.85828470	0.09794696
 0.64137860	0.88916859	0.15436142
 0.53968108	0.88919483	0.22250629
 0.57365022	0.91043996	0.28624859
 0.54533736	0.95906237	0.34083453
 0.65023031	0.96749725	0.39271597
 0.63087409	0.01099962	0.46578876
 0.57730738	0.93731514	0.52534100
 0.58343589	0.91932840	0.58084582
 0.55994503	0.94443942	0.65056578
 0.64443761	0.96235429	0.70331395
 0.60012138	0.87067813	0.78258970
 0.43623001	0.92550937	0.81800602
 0.48798073	0.21902746	0.88551239
 0.56050646	0.20971349	0.96497130
 0.72969626	0.19119103	0.04844143
 0.54509599	0.08681123	0.10111445
 0.53986997	0.15437382	0.15002969
 0.54372128	0.28027317	0.22240495
 0.69124093	0.27375953	0.29641040
 0.51901416	0.19687984	0.33285875
 0.53814896	0.18774322	0.39073161
 0.59848431	0.21995985	0.46201879
 0.54876890	0.24867306	0.53155575
 0.53315905	0.24916260	0.58066283
 0.54681177	0.15148114	0.64550996
 0.58392386	0.21516828	0.70322640
 0.51507891	0.18181200	0.79168014
 0.54772475	0.13656757	0.85179118
 0.52040724	0.50589822	0.90588030
 0.58961162	0.46876776	0.95798258
 0.48138209	0.48509855	0.03796785
 0.47305142	0.45309652	0.07238039
 0.68476612	0.60532116	0.15655631
 0.57508265	0.54530063	0.21565304
 0.50352499	0.44862134	0.28084351
 0.55961971	0.64011932	0.34092504
 0.61615623	0.55851784	0.38587256
 0.60348471	0.61211604	0.45133063
 0.47900940	0.70853507	0.50700369
 0.48712232	0.67072512	0.59074102
 0.56961002	0.66713617	0.64819970
 0.60552055	0.54379998	0.69234148
 0.50597430	0.57429035	0.79282235
 0.51434433	0.51943760	0.83617903
 0.92662174	0.03851488	0.93622211
 0.90347194	0.08410955	0.01982838
 0.83160891	0.06444796	0.05190682
 0.94841445	0.16315783	0.14082217
 0.88850747	0.08574767	0.17564427
 0.95599003	0.15958095	0.25021246
 0.92255006	0.04213411	0.30307279
 0.86084524	0.13618191	0.37482531
 0.85120648	0.31695291	0.43672984
 0.80637604	0.18124322	0.49834514
 0.85629608	0.10536466	0.57040264
 0.91195635	0.07863849	0.60919639
 0.91343076	0.07469012	0.68297360
 0.89131462	0.03538803	0.74489683
 0.82512885	0.01969376	0.80476388
 0.94971246	0.99270115	0.87635702
 0.85983781	0.35637054	0.93080916
 0.91457461	0.34125023	0.99470574
 0.90802109	0.31501414	0.06152262
 0.91229216	0.34014154	0.12587606
 0.83082185	0.46881708	0.18503871
 0.93196319	0.44730487	0.25088736
 0.90348243	0.41538627	0.30475905
 0.92921376	0.42493950	0.36484550
 0.88270952	0.44591966	0.41655182
 0.84439587	0.54273484	0.49519103
 0.95904311	0.43695095	0.55193546
 0.92632791	0.42550932	0.61685932
 0.01494206	0.57187673	0.67161645
 0.96009708	0.44359628	0.75057540
 0.85766555	0.37818183	0.81534480
 0.95873438	0.26236093	0.87713128
 0.93057798	0.70104234	0.92727137
 0.92135899	0.70002442	0.98458590
 0.85573465	0.68848100	0.06099962
 0.94977007	0.64256443	0.10306043
 0.91262272	0.75881715	0.19372874
 0.85358338	0.72057171	0.25839091
 0.86508482	0.72238717	0.30762687
 0.89457826	0.75168647	0.35787813
 0.92498467	0.75368033	0.42921154
 0.87322293	0.74192703	0.48411623
 0.92718317	0.73298088	0.55851423
 0.92084478	0.78786984	0.61885056
 0.94884429	0.81653425	0.68117027
 0.85989553	0.69625182	0.75910310
 0.86843241	0.71752844	0.81899180
 0.93953463	0.71581792	0.87983087
 0.20992390	0.05827328	0.93341824
 0.26048512	0.10000221	0.00775756
 0.28812112	0.09039652	0.05365004
 0.15342621	0.98609023	0.12829231
 0.17726232	0.01555612	0.18695912
 0.39160630	0.28798994	0.24765454
 0.24618283	0.11251633	0.30603702
 0.23668574	0.06324587	0.37251531
 0.26018552	0.16465481	0.42520938
 0.19382922	0.14151235	0.49649163
 0.24539420	0.10771689	0.55098411
 0.20544243	0.04215316	0.61123387
 0.23178241	0.07347439	0.69672535
 0.19785473	0.07629938	0.74019419
 0.18265992	0.06127457	0.79637883
 0.28703184	0.00820239	0.85933900
 0.29074252	0.29103688	0.93509761
 0.21461577	0.37387246	0.98804725
 0.29214925	0.33905226	0.05507372
 0.23770681	0.41648342	0.14051325
 0.13663630	0.39682550	0.18729952
 0.08947147	0.29455343	0.23687981
 0.23000000	0.41602325	0.31493857
 0.23682112	0.46721622	0.37182763
 0.21520869	0.45513183	0.43220528
 0.24789703	0.52536199	0.50325634
 0.29794824	0.45742687	0.56246030
 0.21562058	0.39868504	0.62618686
 0.30883369	0.42872206	0.68689508
 0.24620539	0.48277203	0.72611581
 0.11223299	0.36111383	0.79394389
 0.11671184	0.35715811	0.86241244
 0.27122418	0.71789049	0.93393966
 0.37609457	0.84027172	0.99678548
 0.24166935	0.71230767	0.05539631
 0.23845503	0.65774402	0.12683036
 0.20834612	0.70504056	0.18920811
 0.23874467	0.79356809	0.25008752
 0.26799254	0.74308662	0.30445407
 0.26582973	0.76010792	0.37702216
 0.28238299	0.68343338	0.41961541
 0.20168400	0.89371775	0.47960545
 0.12582904	0.72144271	0.54113515
 0.21847547	0.71565526	0.60376476
 0.33708988	0.74610890	0.66378234
 0.22842643	0.69337121	0.74728553
 0.18852555	0.75097812	0.80634782
 0.22589107	0.76835622	0.87290383
 0.56935292	0.02369019	0.94089424
 0.47408088	0.13719039	0.00789422
 0.54281879	0.06899397	0.05383952
 0.48726189	0.97786025	0.13802814
 0.62116188	0.04252375	0.19660935
 0.54674880	0.07737239	0.25504594
 0.64476817	0.06146398	0.29749457
 0.60855332	0.07133256	0.36753229
 0.65612795	0.10645236	0.42076156
 0.62120910	0.07807601	0.49319389
 0.56997206	0.07865476	0.55500594
 0.64323080	0.05325661	0.61276764
 0.58126887	0.06958268	0.68077772
 0.61953006	0.12098710	0.74658407
 0.58759152	0.05138317	0.81111243
 0.48713229	0.95581814	0.87155601
 0.52108358	0.32649040	0.92991192
 0.54258268	0.37158581	0.99321121
 0.45305926	0.23452293	0.04290000
 0.46384659	0.30746474	0.11400536
 0.62171282	0.43828946	0.18360923
 0.58655786	0.42515095	0.24975204
 0.54502254	0.46864813	0.31778377
 0.64594875	0.38992830	0.35914134
 0.60535264	0.39300043	0.42592953
 0.64985252	0.36027064	0.49824577
 0.48859096	0.48120579	0.57602710
 0.52109041	0.41805175	0.61771426
 0.54511174	0.34115736	0.66438148
 0.56308799	0.45639899	0.73160648
 0.51761793	0.31661867	0.82143953
 0.53686869	0.40227924	0.86333722
 0.62147670	0.67437704	0.92801415
 0.60590883	0.56244785	0.99210929
 0.53392511	0.66651702	0.07017271
 0.45510717	0.52365409	0.11100768
 0.63260036	0.76982013	0.18907136
 0.58098029	0.76032305	0.24960446
 0.52042299	0.78645315	0.31312049
 0.62033810	0.75681280	0.37299148
 0.59208296	0.82093124	0.41968231
 0.56370713	0.83142526	0.48935013
 0.52805896	0.68865415	0.54788215
 0.61818158	0.80807082	0.61820616
 0.54183760	0.74007484	0.68728369
 0.51606115	0.71573921	0.75451558
 0.52940744	0.71451666	0.81537727
 0.54487562	0.63455225	0.88029523
 0.06240792	0.88765745	0.95140066
 0.11018561	0.82811965	0.98828563
 0.98417523	0.89975181	0.04899483
 0.07238616	0.81322339	0.11459762
 0.06180399	0.87010096	0.18274249
 0.99843149	0.87979219	0.25041906
 0.08845355	0.90274785	0.31545508
 0.04614445	0.95424288	0.36900310
 0.10166184	0.88099375	0.42694188
 0.01040094	0.00293723	0.49593184
 0.02747848	0.00016464	0.55369452
 0.16632965	0.83347684	0.63120825
 0.11411037	0.92439176	0.69065522
 0.04959174	0.88771517	0.73728309
 0.04701913	0.87191643	0.80269000
 0.09672703	0.90749115	0.86766305
 0.07636287	0.19178919	0.93519107
 0.06762974	0.20323711	0.99752998
 0.04714275	0.11581775	0.04721993
 0.11253994	0.17043963	0.11896674
 0.01440425	0.18257387	0.19814115
 0.19474430	0.11354474	0.24933096
 0.08656672	0.27359320	0.31171166
 0.08909893	0.23577224	0.36658980
 0.10111773	0.27155054	0.43182651
 0.03585192	0.32847219	0.50493866
 0.03416159	0.20654535	0.57075779
 0.09311184	0.21393314	0.61109122
 0.02105457	0.29152171	0.67799747
 0.07551495	0.30980228	0.72440201
 0.02619664	0.16106690	0.80494786
 0.11700305	0.16339185	0.86100755
 0.04678763	0.48458854	0.93837076
 0.06701480	0.54711609	0.99268302
 0.05486272	0.74270359	0.03125833
 0.05253515	0.55409986	0.12496112
 0.97370803	0.65730852	0.17204646
 0.04044258	0.61487596	0.25307438
 0.07520433	0.58382417	0.32285238
 0.07259866	0.57710799	0.37214441
 0.08561124	0.61413614	0.42590100
 0.06014751	0.56860784	0.48951541
 0.15257882	0.46671356	0.52923001
 0.06148182	0.58511493	0.61407218
 0.14815611	0.46409372	0.67992377
 0.01636138	0.63819367	0.73969638
 0.05326186	0.57092177	0.81378743
 0.05385162	0.52908737	0.87915105
 0.44202113	0.90218642	0.93932917
 0.48503244	0.99115895	0.98408543
 0.50106415	0.87242014	0.07858422
 0.32128956	0.86791821	0.12952995
 0.36793914	0.87510136	0.20191506
 0.43332317	0.87585693	0.25506955
 0.35731919	0.97442487	0.29664750
 0.43240284	0.92950759	0.37435209
 0.39257280	0.94291727	0.43028291
 0.38614101	0.95658667	0.49001026
 0.41005426	0.92106516	0.55378110
 0.42542379	0.86000047	0.60313708
 0.40750631	0.90493585	0.69013576
 0.55826074	0.88549569	0.73483831
 0.33310163	0.77418040	0.78876608
 0.56050121	0.81248356	0.85719035
 0.43328486	0.17243035	0.92740320
 0.37188909	0.22479550	0.99164451
 0.43424979	0.16080088	0.07840526
 0.34174135	0.15698368	0.14148723
 0.35574667	0.12940173	0.18228206
 0.56763714	0.25380096	0.26726983
 0.37461229	0.28696993	0.30518504
 0.37170177	0.24823074	0.37442293
 0.48039303	0.18939340	0.43009500
 0.44585460	0.28467121	0.49422197
 0.41086492	0.28740543	0.56301911
 0.40480410	0.22605268	0.61332054
 0.39114981	0.19983390	0.67149445
 0.46720730	0.28631352	0.75164874
 0.23551251	0.19720200	0.77529078
 0.34023913	0.26886407	0.85793313
 0.37163933	0.51619337	0.93606175
 0.40238785	0.54547378	0.99427191
 0.27454343	0.54828618	0.04442964
 0.44615525	0.51879694	0.15346221
 0.39472879	0.60349520	0.19201690
 0.45228743	0.56997731	0.24844160
 0.37947679	0.63027069	0.32518303
 0.42122146	0.65092816	0.37075035
 0.48227566	0.60012662	0.42334899
 0.42581837	0.51898688	0.47618374
 0.36776651	0.61001199	0.54408462
 0.39266672	0.59596574	0.61997703
 0.44561848	0.58089109	0.66862172
 0.41240072	0.50868175	0.75453919
 0.30199054	0.57076961	0.81560355
 0.37379690	0.51782467	0.87271396
 0.72447023	0.87927273	0.93179101
 0.72937619	0.72847895	0.99024132
 0.72216680	0.88348083	0.05703603
 0.84297393	0.89613662	0.12445150
 0.78540375	0.90461579	0.19405340
 0.72120135	0.93988618	0.25706374
 0.74260390	0.87322818	0.30980405
 0.78389786	0.92685786	0.36713188
 0.76237987	0.91863055	0.43550893
 0.76646729	0.91405515	0.49062613
 0.70574366	0.88239470	0.55389227
 0.77056521	0.90176666	0.60794892
 0.73395683	0.91708268	0.66941270
 0.73142252	0.84165168	0.75022024
 0.74203722	0.85017282	0.81686578
 0.73110245	0.83402253	0.87860503
 0.71923372	0.17967962	0.93264398
 0.73834333	0.20723008	0.00315804
 0.76582716	0.31234341	0.10456665
 0.68528557	0.16731504	0.12867895
 0.70633657	0.23003778	0.19392157
 0.71643182	0.24295329	0.24798806
 0.78942820	0.10499579	0.27522298
 0.67962930	0.22551381	0.35482240
 0.66410865	0.27010394	0.43606970
 0.81636110	0.39660722	0.51484075
 0.74206346	0.28765414	0.55638919
 0.68515965	0.31392381	0.63133516
 0.82541744	0.30728844	0.66881159
 0.72526778	0.36549508	0.75100926
 0.68321825	0.25158830	0.81288133
 0.76518702	0.15687034	0.85093133
 0.73500098	0.46873208	0.92539228
 0.79143781	0.47987987	0.00494140
 0.70561773	0.58773843	0.04844704
 0.80385748	0.59233481	0.12707140
 0.76934790	0.64904448	0.19696155
 0.76398021	0.54870594	0.25362531
 0.71515155	0.57059121	0.32218338
 0.78540375	0.56376485	0.37324432
 0.76746422	0.62199091	0.42131741
 0.68843378	0.65143187	0.49469716
 0.77530850	0.54678028	0.55442353
 0.79659562	0.59184160	0.61231804
 0.79178411	0.65741871	0.68109058
 0.67768266	0.60670637	0.74479451
 0.66298054	0.51700928	0.82340913
 0.72130104	0.52273062	0.87439628
 0.10699228	0.08401563	0.90366278
 0.89791536	0.96053284	0.98588778
 0.12192264	0.98070407	0.01472022
 0.10520987	0.99149843	0.09364120
 0.11662894	0.19898441	0.15803596
 0.18448797	0.89263686	0.22179401
 0.05231640	0.09837144	0.27859943
 0.04649841	0.12247410	0.33855307
 0.07231637	0.10904701	0.39923570
 0.05380440	0.13859344	0.45572434
 0.26528351	0.96549593	0.51659686
 0.09383383	0.06930984	0.58677035
 0.03159077	0.06578962	0.63963265
 0.03028810	0.12670162	0.72003879
 0.01698420	0.05361498	0.77014150
 0.08902127	0.98129132	0.83863463
 0.07286206	0.34048784	0.90610657
 0.01693666	0.33102696	0.96319591
 0.11290618	0.43923130	0.02803585
 0.03216820	0.32698834	0.10184936
 0.01103866	0.37619269	0.15878661
 0.03369493	0.48111345	0.20739785
 0.11171511	0.43075528	0.27675872
 0.08810305	0.38413666	0.33667004
 0.10334351	0.36236787	0.40089146
 0.03302955	0.43450899	0.45563580
 0.11643742	0.29542233	0.54311852
 0.07353735	0.40786573	0.58257930
 0.06788580	0.43864835	0.64472586
 0.91240235	0.45756802	0.69643119
 0.89953668	0.32837617	0.78298912
 0.99667282	0.37275432	0.83386215
 0.16527028	0.60110257	0.91057309
 0.05109490	0.67011647	0.95536465
 0.93632346	0.61905783	0.01451814
 0.10798344	0.66403519	0.08239601
 0.07497713	0.73801276	0.14886288
 0.08903229	0.72879902	0.21846478
 0.09007435	0.72768140	0.28591212
 0.10546383	0.77676192	0.34383615
 0.09193651	0.77159362	0.39755928
 0.09468437	0.75089942	0.46151802
 0.09086193	0.71316293	0.50393320
 0.04708718	0.82965177	0.58368216
 0.15239884	0.71260675	0.66082696
 0.99489994	0.68813995	0.70446600
 0.05010185	0.74233105	0.78158030
 0.06909209	0.72538846	0.84083051
 0.37427385	0.00276782	0.90732946
 0.40547047	0.09677216	0.96511730
 0.41662089	0.94533037	0.02742559
 0.33595810	0.04249542	0.10672711
 0.46091928	0.94535188	0.17723411
 0.43184718	0.07321204	0.22695509
 0.45894011	0.11476677	0.28130492
 0.39483478	0.09769563	0.34639603
 0.41988768	0.07082098	0.39509581
 0.40932859	0.11385169	0.46162919
 0.39640784	0.08795193	0.52304477
 0.47470160	0.04849978	0.59839903
 0.36473322	0.04999659	0.64085455
 0.46520452	0.10933769	0.71757631
 0.44516199	0.00496044	0.76494007
 0.39481432	0.12854279	0.82855841
 0.38394881	0.37706474	0.89936450
 0.41258646	0.35562441	0.96188291
 0.34960872	0.39168186	0.01384384
 0.59182585	0.29546011	0.07963788
 0.44438281	0.33975483	0.16328953
 0.43907808	0.36517607	0.19763842
 0.33982409	0.39561291	0.27692301
 0.38592169	0.39396273	0.34843253
 0.43414957	0.48314666	0.39880971
 0.47334263	0.40125450	0.44692314
 0.44440065	0.49455366	0.51683396
 0.32216476	0.41632076	0.60204505
 0.34219627	0.35840795	0.65266524
 0.45918200	0.37292013	0.71429332
 0.37109836	0.36780901	0.78747728
 0.28716406	0.39059887	0.83160627
 0.35548746	0.72102295	0.89767529
 0.46782067	0.67511162	0.94833136
 0.43035283	0.65336802	0.02518997
 0.33806687	0.72089177	0.08878047
 0.40552346	0.73906217	0.16709394
 0.36371215	0.71121629	0.22739388
 0.39137543	0.71773308	0.27794225
 0.34950430	0.79648543	0.34472551
 0.42653721	0.76488794	0.39837585
 0.45654223	0.75797763	0.45882532
 0.32429924	0.80656493	0.52054687
 0.29502723	0.69669257	0.56686090
 0.46918017	0.78208764	0.64251227
 0.46253956	0.72874130	0.72070680
 0.26210488	0.59321106	0.77615260
 0.34848008	0.68684394	0.84019792
 0.68008579	0.97769213	0.89460874
 0.71931243	0.04966184	0.96556926
 0.67700055	0.98066929	0.01147521
 0.70099512	0.04084906	0.08312413
 0.68233151	0.05651973	0.16075326
 0.79459651	0.05444926	0.21746522
 0.91054490	0.01105456	0.23916128
 0.79678976	0.12404191	0.32621702
 0.87145469	0.01994204	0.42188901
 0.82598411	0.11465711	0.46054995
 0.78851522	0.07189871	0.53229755
 0.69385919	0.15039501	0.58406486
 0.77373440	0.07991457	0.64821938
 0.74987625	0.11989258	0.70196318
 0.71519877	0.01224363	0.77040614
 0.68223181	0.98104954	0.84196878
 0.68620380	0.31806422	0.89756608
 0.72516809	0.37990127	0.96520899
 0.83092155	0.40945347	0.03953477
 0.65250751	0.52943367	0.09542790
 0.66763464	0.39375652	0.13247451
 0.72704127	0.44805624	0.21786170
 0.73414047	0.43152134	0.27686005
 0.72854191	0.34411090	0.32446878
 0.72821135	0.38284327	0.39040105
 0.75251025	0.48752109	0.45357864
 0.58942797	0.44131226	0.54156508
 0.73251390	0.44319121	0.58529463
 0.69860773	0.50301341	0.64729263
 0.72751875	0.40444258	0.70662547
 0.75874894	0.45787182	0.78118973
 0.71151012	0.38779487	0.85448093
 0.76294655	0.72463814	0.90655126
 0.75283556	0.63552819	0.95660140
 0.68987671	0.69598422	0.02352408
 0.73011602	0.71858834	0.08659522
 0.54651269	0.71458487	0.12931154
 0.76525523	0.79613913	0.23025382
 0.68068395	0.71507284	0.27588115
 0.75602050	0.83244843	0.34208004
 0.77695082	0.78686766	0.38963565
 0.70006640	0.79364155	0.46015347
 0.76996705	0.77381310	0.52267880
 0.74050509	0.71961150	0.58196442
 0.74309712	0.74297643	0.64954950
 0.71844667	0.72237668	0.70893547
 0.70951626	0.66696827	0.79471324
 0.73851648	0.72644311	0.84696459
 0.93349532	0.89707583	0.93506908
 0.96921496	0.79565640	0.96537368
 0.83488829	0.81657623	0.06687555
 0.96172549	0.87244637	0.12214643
 0.95423197	0.93598240	0.17676483
 0.85989553	0.86707344	0.25709129
 0.93243018	0.08530010	0.33119512
 0.92734583	0.89167666	0.36321630
 0.93660155	0.89975181	0.42975952
 0.93403052	0.88656083	0.49018833
 0.90808406	0.02682916	0.54670157
 0.91110109	0.92004724	0.62067062
 0.88106721	0.92500041	0.67155348
 0.88447777	0.84083315	0.75100041
 0.90464727	0.86422431	0.81202935
 0.81173848	0.92700477	0.87506921
 0.87169081	0.20835872	0.93691471
 0.93333791	0.22994229	0.98742233
 0.91480023	0.17558852	0.05009896
 0.82832953	0.09712108	0.15527243
 0.81711667	0.16376964	0.19034540
 0.88881179	0.26948637	0.25182887
 0.92987489	0.26776325	0.31345990
 0.96633136	0.26541154	0.37694051
 0.79549899	0.23911616	0.45260762
 0.86865279	0.27153323	0.49476701
 0.98805135	0.25797286	0.54006279
 0.88619354	0.25206263	0.61725777
 0.90604822	0.20765877	0.68104827
 0.90731799	0.41026309	0.72136596
 0.92604982	0.26745945	0.81481945
 0.85691523	0.18988715	0.86636344
 0.88756301	0.47700032	0.92948790
 0.92653779	0.51633766	0.00236014
 0.97529199	0.36766262	0.04274426
 0.92488498	0.54454506	0.11775665
 0.89902772	0.61485498	0.19170799
 0.89410078	0.57808919	0.24903385
 0.91863055	0.58628501	0.31254004
 0.92617050	0.61485498	0.36439786
 0.89076893	0.56161883	0.43211182
 0.95210153	0.62892221	0.49158830
 0.94669774	0.57648885	0.55881921
 0.95318834	0.65261770	0.61781461
 0.08480478	0.80160126	0.67663193
 0.93543147	0.58818968	0.75397645
 0.80108181	0.56482475	0.80002190
 0.90846184	0.53593472	0.88371988
 0.25613011	0.92617574	0.93087901
 0.25791566	0.89291496	0.00325573
 0.34924247	0.82548565	0.06403646
 0.20821180	0.05273191	0.11017439
 0.19126239	0.88469289	0.19140596
 0.34178648	0.89464647	0.27066694
 0.21323948	0.94731594	0.30599177
 0.18861999	0.93450316	0.37100811
 0.23144713	0.89733294	0.43262734
 0.13342304	0.91556629	0.50001369
 0.24386103	0.98305620	0.54344318
 0.23761866	0.04376299	0.63683075
 0.26938195	0.95443991	0.68196322
 0.19820733	0.94396310	0.74671983
 0.26992292	0.84490483	0.80399060
 0.22958864	0.88395831	0.86073307
 0.18921763	0.18466585	0.92748486
 0.23946089	0.24194587	0.00278878
 0.19037512	0.25061183	0.05715901
 0.22443030	0.23805311	0.13300872
 0.35044089	0.29523764	0.18606286
 0.22926805	0.23217384	0.24417479
 0.22063986	0.26498076	0.32019214
 0.21735839	0.20417842	0.36787466
 0.24133669	0.34355367	0.41785832
 0.29882029	0.24182361	0.49418164
 0.24691374	0.24340034	0.54831306
 0.27392009	0.30232844	0.61608998
 0.28631457	0.29867443	0.67530772
 0.17863651	0.19486813	0.72821429
 0.14909638	0.22280006	0.80715849
 0.24718973	0.18308125	0.87194363
 0.29221588	0.54931984	0.91018547
 0.19957837	0.51481971	0.98880941
 0.27551046	0.67123933	0.03393185
 0.17781955	0.52533051	0.14067066
 0.24391612	0.58028244	0.19228450
 0.22836241	0.50407908	0.25713654
 0.26071337	0.58547697	0.31295717
 0.27956902	0.62512862	0.37137999
 0.22224807	0.58650014	0.42980478
 0.27524076	0.58675200	0.47787197
 0.24580347	0.58835233	0.55588055
 0.24467326	0.58436986	0.61191074
 0.25901596	0.65763908	0.67366573
 0.26242022	0.53582453	0.75369212
 0.17053146	0.42521601	0.82212033
 0.18671638	0.53376770	0.87333573
 0.58637421	0.89592674	0.93470310
 0.62274123	0.80440317	0.99266892
 0.57850370	0.77518782	0.07543582
 0.54305491	0.83431112	0.11874932
 0.55129271	0.88466666	0.18871719
 0.56732757	0.91791695	0.24664122
 0.63286271	0.83355030	0.32240868
 0.60961846	0.90979983	0.36319072
 0.54695868	0.97253878	0.41612582
 0.58847302	0.95664203	0.49564063
 0.57511938	0.94176712	0.55193251
 0.56333984	0.94816123	0.61116205
 0.60202079	0.94465665	0.67488763
 0.59953371	0.85368832	0.75856299
 0.61244135	0.91071806	0.80706896
 0.60265568	0.88113017	0.87612287
 0.56552785	0.16767603	0.93702293
 0.51510567	0.23133694	0.99204172
 0.57365546	0.19388799	0.06024691
 0.58181456	0.28455053	0.13184093
 0.55050566	0.24485376	0.19809983
 0.57255884	0.23028649	0.24434303
 0.48227671	0.35130455	0.32375552
 0.60134918	0.27687468	0.37126095
 0.58413899	0.22546711	0.41830694
 0.49019917	0.35182820	0.51726290
 0.59300643	0.27325844	0.55822695
 0.55079949	0.30122290	0.60588192
 0.52247771	0.18369620	0.68248169
 0.59328452	0.29131445	0.74982475
 0.55450913	0.17502237	0.81541761
 0.43355508	0.16887183	0.85708902
 0.51913852	0.55800888	0.92857394
 0.49696466	0.54845933	0.97466138
 0.48541442	0.55730578	0.05613417
 0.46011807	0.46203427	0.13153201
 0.65543009	0.60497486	0.18590939
 0.61979241	0.57824660	0.26079043
 0.57930124	0.60869499	0.31401674
 0.60688477	0.64818922	0.36387644
 0.64303141	0.52689937	0.42958834
 0.52376481	0.57282119	0.49159322
 0.43267359	0.62771539	0.56816741
 0.50895093	0.73946094	0.61935034
 0.58445905	0.62443077	0.67032667
 0.52608608	0.60660143	0.73371578
 0.56023361	0.56441548	0.81452233
 0.60455510	0.52821637	0.86760993
 0.89893852	0.06049066	0.90097106
 0.90858252	0.02838217	0.96280061
 0.88778863	0.96593715	0.03455106
 0.86339004	0.05839344	0.07491154
 0.98545687	0.16929841	0.16639740
 0.92155838	0.09073442	0.21629448
 0.93301260	0.13355893	0.27903133
 0.79237702	0.16078566	0.35363395
 0.92229820	0.10737479	0.40166376
 0.93547543	0.05705282	0.45838458
 0.86676911	0.06225051	0.51431146
 0.96233330	0.14249354	0.58594985
 0.90453183	0.09448026	0.64875359
 0.86043072	0.02259357	0.71567951
 0.87111888	0.03373076	0.76944397
 0.82805668	0.02550529	0.83035190
 0.93133355	0.33234763	0.90250581
 0.85791216	0.35682073	0.97189824
 0.85180464	0.33051065	0.01625113
 0.82169731	0.21730277	0.12024668
 0.87180624	0.33095927	0.15156640
 0.87926224	0.47597872	0.21128687
 0.91242333	0.40993305	0.27887588
 0.92022039	0.44103364	0.34112180
 0.88999762	0.45370832	0.39070899
 0.86910928	0.42433661	0.45038322
 0.90474696	0.48038096	0.52686689
 0.94586556	0.35749549	0.57766712
 0.95812126	0.49966687	0.64079257
 0.10909161	0.44909987	0.73180718
 0.86764011	0.44287377	0.77328281
 0.85498433	0.36040444	0.84450505
 0.92676866	0.77120534	0.90360965
 0.94078173	0.63569085	0.96549646
 0.93943483	0.76083725	0.03957245
 0.94029020	0.58205068	0.07630069
 0.98609999	0.78393458	0.16286157
 0.90302069	0.73411424	0.22368883
 0.91124276	0.73775566	0.28087499
 0.88575279	0.83190799	0.32170328
 0.89642520	0.74988150	0.39308982
 0.91128998	0.74867993	0.46024398
 0.97795978	0.72226124	0.51933580
 0.91185141	0.78645315	0.58929580
 0.87265101	0.79736693	0.65208675
 0.95106026	0.57666725	0.71074175
 0.90257995	0.74383170	0.77957824
 0.90731275	0.73283921	0.84273911
 0.24404887	0.05186799	0.90552908
 0.26572059	0.04175213	0.96495841
 0.23349713	0.03509603	0.02812203
 0.38568295	0.01355140	0.08524208
 0.24151876	0.14023943	0.16471409
 0.19412411	0.03549229	0.22663044
 0.22552326	0.03931190	0.27455104
 0.23596061	0.09106394	0.34400143
 0.23380041	0.10742883	0.40098197
 0.20622318	0.10039522	0.47112792
 0.30090598	0.05522634	0.50391549
 0.23916915	0.98769592	0.58867895
 0.24164836	0.13863332	0.67306856
 0.30333640	0.10124733	0.71779767
 0.13340152	0.11763006	0.77084492
 0.18497280	0.07260548	0.84635069
 0.24288561	0.33196617	0.89733981
 0.25960992	0.39748819	0.95554193
 0.23683948	0.39985460	0.03329099
 0.14940752	0.31357069	0.09084028
 0.12965359	0.34346709	0.15646088
 0.17143499	0.43015397	0.21121800
 0.16885084	0.35003058	0.29463068
 0.24364223	0.41238603	0.34756087
 0.17378145	0.48755992	0.39443567
 0.17447983	0.37636584	0.45554430
 0.29631380	0.48487135	0.52819111
 0.22874282	0.38892560	0.58547467
 0.19269220	0.41720593	0.65495162
 0.32139188	0.39474506	0.71108707
 0.25680120	0.35551580	0.77215832
 0.22906184	0.30592107	0.84662616
 0.21538866	0.72312175	0.91017563
 0.17570763	0.77976321	0.95823079
 0.10000012	0.88793554	0.02925922
 0.23763283	0.64167244	0.08028297
 0.21331294	0.70571218	0.15744076
 0.19826872	0.71639509	0.23401986
 0.25464415	0.70755913	0.27854237
 0.22685967	0.75721682	0.34090832
 0.25798860	0.75101485	0.39924751
 0.31901865	0.73397781	0.45871022
 0.28849995	0.87782456	0.49718522
 0.01961673	0.83978375	0.54843505
 0.23839154	0.75706990	0.64770976
 0.25763600	0.69265237	0.72687138
 0.24388884	0.74154400	0.77154933
 0.18776998	0.65913973	0.83084086
 0.50556031	0.01089074	0.89342619
 0.54351140	0.01546398	0.96359435
 0.48541494	0.99294729	0.00834147
 0.59736145	0.96719182	0.08352720
 0.54952972	0.01910179	0.15921457
 0.54210520	0.02504906	0.21336272
 0.59987477	0.14244842	0.27945929
 0.58911315	0.10224164	0.34323897
 0.57620026	0.07700405	0.39429892
 0.54848556	0.12915984	0.44717500
 0.60558876	0.08110669	0.52418305
 0.56952082	0.10518311	0.58145579
 0.69553298	0.18962690	0.64365645
 0.62248413	0.08881244	0.70690488
 0.53167415	0.03364975	0.78573298
 0.55694899	0.99351533	0.83350896
 0.54430370	0.30784148	0.89823606
 0.55098314	0.34454273	0.96503830
 0.48950341	0.38525532	0.02252354
 0.51929435	0.38429879	0.09243288
 0.70482019	0.48342475	0.15429255
 0.55332855	0.41374448	0.21423733
 0.61703248	0.36853835	0.27858271
 0.65770205	0.44823621	0.33026542
 0.55210600	0.46353072	0.40457880
 0.61928345	0.36283642	0.45136014
 0.53419796	0.57473110	0.53414121
 0.50407698	0.52587095	0.60716875
 0.61302902	0.42172675	0.63838714
 0.58957489	0.42808770	0.70509663
 0.49434535	0.33967141	0.78889496
 0.57720769	0.41683654	0.83783086
 0.62252610	0.72115413	0.90459248
 0.62185973	0.69938429	0.95567947
 0.56496117	0.64409656	0.02208092
 0.72085505	0.59221413	0.11350067
 0.62152917	0.74490733	0.16180397
 0.60492764	0.73886278	0.21882190
 0.52455763	0.81105113	0.27513641
 0.48137789	0.75372756	0.33378550
 0.56346577	0.77604308	0.39955249
 0.57694009	0.75562697	0.45897093
 0.59451232	0.77082756	0.52050162
 0.59260766	0.77591716	0.58857368
 0.59912969	0.80189510	0.64764582
 0.56627292	0.75659242	0.70978647
 0.52160514	0.72516284	0.78305996
 0.61333859	0.70394918	0.85620654
 0.06352134	0.99046660	0.88693204
 0.12644451	0.94888658	0.97455148
 0.85104383	0.73291267	0.00415042
 0.06423965	0.82872830	0.08776911
 0.16587998	0.85790167	0.13990230
 0.06652315	0.85726153	0.22722466
 0.98698170	0.93327379	0.29480187
 0.08315617	0.96551797	0.33469750
 0.08977579	0.91685181	0.40377207
 0.09989098	0.90694021	0.45946480
 0.03892394	0.99084371	0.52722598
 0.00148106	0.97580956	0.58107407
 0.09119196	0.97756505	0.64980726
 0.94879350	0.83358178	0.70965857