Na
  1.000000
16.76437900	0.00000000	0.00000000
0.00000000	16.76437900	0.00000000
0.00000000	0.00000000	89.41002300
Na Cl 
575 572 
car
 14.51290144	15.43017802	80.66456578
 14.75717420	15.36543734	85.81519289
 14.41209606	14.10642510	2.04264708
 14.93688231	14.84276206	7.80221634
 15.38751603	15.50169184	13.37976379
 1.10863962	0.94411400	19.86869531
 14.21382777	14.85753986	25.46348369
 15.28354385	16.10660864	30.29123600
 15.83537708	15.27817824	58.06955055
 14.25534626	15.17174321	63.86005657
 14.74257243	14.81144737	69.43329445
 14.43171172	15.26630320	75.84895178
 14.16360102	3.21854283	80.32186253
 13.94035129	3.58331594	86.73992857
 16.69917797	4.92909473	1.95970677
 15.35998372	2.81902438	8.03881851
 13.26796340	4.10786481	14.93195666
 14.90108148	4.44073379	19.71713549
 15.28213648	4.45076157	24.79839650
 14.96230365	4.70900275	30.39802286
 15.10656264	3.82756238	57.24727339
 14.46073958	4.49848137	63.66064450
 13.48417594	2.78922251	69.28498826
 14.99766475	3.72431157	75.31475372
 15.41803910	7.70676776	81.11907001
 14.97646569	8.51960594	86.07674134
 0.42134635	8.98786740	5.19670366
 15.43220114	8.15329353	8.23354192
 13.60873142	12.76701492	14.09120739
 14.85375748	10.07631952	19.60436710
 15.52192326	9.44641759	25.66790898
 14.97963231	9.65884792	30.28455081
 15.34300677	10.32604607	35.04052654
 15.07938221	10.40521266	57.38572749
 14.10167525	9.24674194	64.77504567
 15.45146492	8.91301093	70.48788031
 14.79341493	8.27587853	76.40276640
 3.76831941	15.08518772	81.11731042
 4.27552201	15.24035412	85.79639532
 3.88636545	14.58142450	2.41142230
 4.62576358	15.47970100	6.91044882
 3.80695275	14.46504970	14.47138327
 5.64176089	0.31149222	23.20882041
 3.18450997	15.26155318	25.27585854
 3.69440426	15.99140986	30.38421348
 3.58116959	0.32952114	59.21359471
 5.34463105	15.09160898	65.50417010
 3.70218008	14.84267421	68.89821570
 4.61359834	14.30381376	74.29931067
 4.18559754	3.11618054	80.29925610
 1.02883983	1.12382211	86.57556076
 3.31107097	4.49651977	2.03697312
 2.70201622	2.83111921	7.16912990
 4.39640927	4.83519426	14.59233179
 4.55066972	4.74166344	18.89740920
 2.82814621	3.82647169	24.62009593
 3.71272688	3.99054869	30.81989332
 4.03011447	4.22534790	35.55009483
 2.92368255	4.01472963	58.66708220
 5.01773488	4.09810090	64.61477731
 0.62374269	3.95328768	68.11851381
 3.41529813	2.50475950	73.67239978
 3.53426789	7.02166040	81.70155933
 4.15342066	8.66550113	85.82383079
 3.75818601	10.30818966	1.13785252
 3.17363777	7.64007436	7.64368969
 2.51732071	9.69948679	14.81083200
 2.96038950	8.34676771	20.92855904
 4.63933619	9.64248690	24.62616508
 3.86811323	9.40709825	30.57271753
 3.23189566	10.30000914	35.09312825
 3.61156073	9.67221819	56.65370081
 4.96068218	10.77562413	62.32712799
 2.87028029	7.19426108	68.06336034
 2.95374829	9.05603858	75.78341960
 8.67760485	14.14548074	80.25078872
 10.87009627	14.19430012	86.45996075
 8.75550473	12.79648251	1.67041438
 10.86657776	14.38861000	8.75743995
 10.75231393	14.90635924	13.80145811
 9.04741816	14.90679913	19.89429251
 9.61688970	15.26296055	25.59349302
 9.14224219	16.07808506	30.47402317
 10.90070735	16.21949058	35.11274391
 9.38713070	15.83294038	58.16710135
 10.80359634	16.13327205	62.88331645
 10.06066226	14.59637816	69.97136308
 7.31312522	15.51558985	73.13793706
 8.18069390	3.67185935	79.17368316
 9.39654273	3.51571643	86.27810613
 12.23290466	3.20519889	4.33114937
 9.13819577	1.45533636	9.04064530
 9.05058479	2.58798123	13.41415803
 9.11514961	4.69860565	19.88523169
 11.58822493	4.58940852	26.50206068
 8.70095008	3.30056826	29.76090849
 9.02173312	3.14739849	34.93532224
 9.16695975	2.53948724	57.71506037
 9.78912090	3.60716259	62.87548860
 8.63497806	3.04796527	70.78413953
 9.18226530	2.28947050	76.15866899
 8.72430421	8.48106950	80.99477846
 9.88447266	7.85860039	85.65324451
 8.07007180	8.13237594	3.39470634
 7.93041329	7.59588178	6.47153233
 11.47967876	10.14783334	13.99770328
 9.64090350	9.14162643	19.28154327
 8.44128377	7.52085817	25.11022469
 9.38167691	10.73120289	30.48211567
 10.32947656	9.36320475	34.50087446
 9.54915826	11.18412360	57.95555009
 10.15117599	9.11646896	61.90226765
 8.48234493	9.62762108	70.88626455
 8.62266328	8.70804879	74.76278630
 15.53423804	0.64567805	83.70764039
 15.14614602	1.41004437	1.77285591
 13.94140695	1.08043003	4.64098997
 15.89957929	2.73523970	12.59091346
 14.89527597	1.43750644	15.70435822
 16.02657918	2.67527553	22.37150180
 15.46597885	0.70635219	27.09774512
 14.43153586	2.28300515	33.51313959
 15.28838188	1.31832545	54.46826324
 15.31309945	1.25213348	61.06468528
 14.94233610	0.59325835	66.60124270
 13.83277277	0.33015366	71.95395702
 15.92133962	16.64201831	78.35510131
 14.41464693	5.97433080	83.22366840
 15.33227539	5.72084819	88.93666309
 15.22240969	5.28101643	5.50073887
 15.29401153	5.70226169	11.25458142
 13.92821237	7.85942721	16.54431532
 15.62378413	7.49878837	22.43184463
 15.14632188	6.96369286	27.24851367
 15.57769164	7.12384683	32.62084455
 15.52931216	7.13339951	55.15340599
 0.25049436	9.58715824	60.04924224
 16.09543133	7.43661616	67.10896378
 14.37823034	6.33998353	72.89999732
 16.07258651	4.39831807	78.42432792
 15.60056195	11.75253948	82.90735452
 15.44601130	11.73547469	88.03184796
 14.34586000	11.54195642	5.45397743
 15.92230542	10.77219364	9.21463542
 15.29955316	12.72109829	17.32129110
 14.30979529	12.07993724	23.10273721
 14.50260979	12.11037230	27.50492552
 14.99704900	12.60155687	31.99789183
 15.43739089	13.20814860	55.33144280
 15.90678529	13.68868963	60.90344951
 14.41561457	11.67222939	67.87142563
 14.55873006	12.02891871	73.22607567
 15.75071462	12.00024291	78.66569832
 3.51924382	0.97691535	83.45694631
 4.36687128	1.67647495	0.69360362
 4.83017165	1.51544152	4.79685131
 2.57209513	16.53119034	11.47061839
 2.97169271	0.26078869	16.71601922
 6.56503643	4.82797250	22.14279812
 4.12710227	1.88626640	27.36277700
 3.96788945	1.06027773	33.30660243
 3.44411476	0.70667155	54.65043438
 3.88568817	1.23175252	62.29422957
 3.31691168	1.27911172	66.18077955
 3.06218013	1.02723011	71.20424951
 4.81191055	0.13750797	76.83351975
 4.87411780	4.87905256	83.60709882
 3.59790011	6.26773962	88.34132735
 4.89770075	5.68400059	4.92414257
 3.98500705	6.98208590	12.56329291
 2.29062272	6.65253308	16.74645439
 1.49993363	4.93800534	21.17942926
 3.85580717	6.97437144	28.15866479
 3.97015901	7.83258979	33.24511695
 3.61474512	6.68370711	55.98738155
 5.17740503	7.18725910	61.41530490
 4.12748047	8.09337328	64.92203127
 1.88151638	6.05384911	70.98654147
 1.95660152	5.98753392	77.10831610
 4.54690495	12.03498825	83.50356648
 6.30499191	14.08663358	89.12261269
 4.05143658	11.94139574	4.95298535
 3.99755050	11.02667004	11.33990540
 3.49279332	11.81956716	16.91710147
 4.00240613	13.30367622	22.36033092
 4.49272851	12.45738573	27.22124540
 4.45647034	12.74273725	33.70956000
 3.66260558	11.99751601	53.98262108
 5.65110251	12.50805237	59.34879429
 3.82942725	11.62393775	66.81481642
 3.16051377	12.58968182	72.09557713
 3.78692351	12.88101488	78.04635152
 9.54484814	0.39715132	84.12537564
 7.94767155	2.29991169	0.70582239
 9.10001992	1.15664106	4.81379272
 8.16864300	16.39321984	12.34109917
 10.41339318	0.71288426	17.57884651
 9.16590410	1.29710007	22.80366336
 10.80913797	1.03040546	26.59899635
 10.20201850	1.19584607	32.86107050
 10.78336492	0.89281399	54.78756879
 9.74461164	1.16651042	60.86835160
 10.38603673	2.02827360	66.75209887
 9.85060694	0.86140694	72.52158102
 8.16647033	16.02369755	77.92584290
 8.73564263	5.47340881	83.14344616
 9.09606169	6.22940535	88.80303713
 7.59525714	3.93163128	3.83568999
 7.77610003	5.15445543	10.19322186
 10.42262934	7.34765062	16.41650548
 9.83327827	7.12739166	22.33033564
 9.13696442	7.85659487	28.41305418
 10.82892966	6.53690580	32.11083547
 8.73575713	7.00837798	55.22984619
 9.13845981	5.71929128	59.40236341
 9.43982047	7.65124564	65.41295220
 8.67754316	5.30791538	73.44492727
 9.00027019	6.74396164	77.19100070
 10.41867094	11.30551229	82.97376650
 10.15768527	9.42908893	88.70451444
 8.95092290	11.17374393	6.27414362
 7.62958908	8.77873563	9.92519922
 10.60515219	12.90555642	16.90487465
 9.73977377	12.74634377	22.31714051
 8.72456824	13.18439867	27.99611021
 10.39958302	12.68749661	33.34917681
 10.36343030	13.54680549	55.27382698
 9.08357088	12.40689511	61.45005053
 8.65144471	11.99892338	67.46125536
 8.87518697	11.97842809	72.90290046
 9.13450140	10.63787441	78.70721676
 1.04623002	14.88102591	85.06475489
 1.84719333	13.88291167	88.36264091
 16.49908656	15.08378035	4.38062888
 1.21350902	13.63318512	10.24617584
 1.03610551	14.58670226	16.33901023
 16.73808390	14.74916971	22.38997391
 1.48286884	15.13400710	28.20484596
 0.77358305	15.99728930	32.99257566
 2.78841329	13.97272163	56.43634415
 1.91298949	15.49685381	61.75149911
 0.83137472	14.88199355	65.92049803
 0.78824652	14.61713749	71.76853136
 1.62156859	15.21352558	77.57777326
 1.28017609	3.21522667	83.61545508
 1.13377059	3.40714394	89.18917845
 0.79031893	1.94161266	4.22193503
 1.88666221	2.85731455	10.63681896
 0.24147831	3.06073755	17.71580478
 3.26476725	1.90350705	22.29268687
 1.45123730	4.58662010	27.87014669
 1.49368823	3.95257519	32.77680245
 1.56096218	3.58645624	54.63768004
 0.35296679	4.88718043	60.61976939
 1.26596124	5.19364284	64.76880038
 0.43917040	2.70018656	71.97040668
 1.96148347	2.73916290	76.98270485
 0.78436556	8.12382594	83.89975123
 1.12346151	9.17206149	88.75581165
 0.91973943	12.45096447	2.79480800
 0.88071917	9.28914006	11.17277661
 16.32361045	11.01936915	15.38267795
 0.67799474	10.30801363	22.62738614
 1.26075389	9.78744966	28.86623872
 1.21707145	9.67485707	33.27344026
 1.03070453	9.80908845	54.90420774
 2.48374518	7.78024301	60.79199991
 0.27428838	10.69892056	66.13627035
 0.89290201	9.57114893	72.76075283
 0.90278897	8.86982119	78.60491560
 7.41020975	15.12459507	83.98544269
 8.13126765	16.61616429	87.98710093
 8.40002931	14.62558187	7.02621692
 5.38621995	14.55010981	11.58127581
 6.16827119	14.67053086	18.05323016
 7.26439385	14.68319752	22.80577433
 5.99023433	16.33562783	26.52325980
 7.24896509	15.58261752	33.47082898
 7.13196565	14.41737382	53.92650019
 6.83159023	15.17068756	61.70505417
 9.35889463	14.84478535	65.70191020
 5.58424197	12.97865364	70.52359335
 9.39645471	13.62078233	76.64140891
 7.26375161	2.89068774	82.91914144
 6.23448965	3.76855696	88.66295845
 7.27992806	2.69572690	7.01021610
 5.72908151	2.63173391	12.65037649
 5.96387200	2.16933964	16.29784318
 9.51608415	4.25481548	23.89660165
 6.28014241	4.81087267	27.28660145
 6.23134935	4.16143420	33.47716278
 6.78628935	3.78963280	54.83700359
 6.55738366	3.35009124	60.03833422
 7.83244025	4.79986836	67.20493113
 3.94822098	3.30596907	69.31876647
 5.70389773	4.50733917	76.70782089
 6.23030258	8.65366129	83.69330260
 6.74578242	9.14452918	88.89787434
 4.60255011	9.19167732	3.97245513
 7.47951570	8.69730853	13.72105973
 6.61738304	10.11722226	17.16823545
 7.58231789	9.55531565	22.21316917
 6.36169273	10.56609672	29.07462219
 7.06151620	10.91240638	33.14879732
 6.58281371	9.99099554	55.43216051
 7.47051709	9.73827839	59.78148336
 6.91364197	8.52773365	67.46336633
 5.06268387	9.56859806	72.92313216
 6.26647290	8.68100902	78.02937524
 12.14529351	14.74046129	83.31145564
 12.22753888	12.21249721	88.53749920
 12.10667794	14.81100747	5.09959275
 14.13193445	15.02317393	11.12721148
 13.16680613	15.16532195	17.35031896
 12.09049277	15.75660814	22.98407491
 12.44929323	14.63912816	27.69958724
 13.14156082	15.53819644	32.82526983
 12.91804722	15.11755806	54.35672692
 12.30433047	15.37432162	59.85220490
 12.26184433	14.10976775	67.07720891
 12.43979319	14.25261937	73.03598818
 12.25647856	13.98186979	78.55609594
 12.05750667	3.01221725	83.38771970
 12.37786742	3.47408360	0.28236043
 12.83861676	5.23624330	9.34930658
 11.48838702	2.80493274	11.50518788
 11.84129396	3.85644053	17.33853203
 12.01053456	4.07296103	22.17261815
 13.23427354	1.76018922	24.60769297
 11.39356316	3.78059898	31.72467894
 11.48627605	5.26273773	56.44769118
 13.83761080	5.15149987	59.79845964
 12.15866394	6.12729804	67.14775521
 11.45372968	4.21772161	72.67973841
 12.82788521	2.62983383	76.08178979
 12.32183499	7.85800224	82.73934504
 13.26796340	8.04488802	0.44181069
 11.82924305	9.85306979	4.33165096
 13.47617146	9.93012525	11.36145680
 12.89763978	10.88082765	17.61033672
 12.80765379	9.19871434	22.67664480
 11.98907163	9.56560730	28.80642342
 13.16680613	9.45116761	33.37178324
 13.35443088	9.92185689	54.74737004
 13.27376891	11.02121642	60.89632442
 11.36092895	10.17105553	66.59209427
 11.11445704	8.66733952	73.62102925
 12.09216401	8.76325423	78.17979151
 1.79365913	1.40846986	80.79650994
 15.05299340	16.10273657	88.14824909
 2.04395735	16.44089472	1.31613521
 1.76377814	16.62185546	8.37246185
 1.95521175	3.33585006	14.12999882
 3.09282625	14.96450263	19.83060754
 0.87705196	1.64913610	24.90958144
 0.77951697	2.05320223	30.27003778
 1.21233903	1.82810540	35.69567312
 0.52959964	1.10292212	57.18956995
 0.50776119	2.12407398	64.37868477
 0.28472957	0.89882184	68.85836923
 1.49238631	16.45073960	74.98234156
 1.22148719	5.70806719	81.01500926
 0.28393259	5.54946142	86.11936847
 1.89280199	7.36343998	2.50668599
 0.53927990	5.48175646	9.10635362
 0.18505628	6.30663683	14.19711445
 0.56487458	8.06556822	18.54344654
 1.87283444	7.22134477	24.74500352
 1.47699292	6.43981256	30.10167602
 1.13806328	7.35366719	57.64495397
 15.29585880	7.67084371	62.26792872
 15.08017383	5.50502257	70.00707523
 16.70860089	6.24899469	74.55563401
 2.77065361	10.07711130	81.41436092
 0.85657427	11.23408648	85.41917533
 15.69688135	10.37812009	1.29806723
 1.81027531	11.13213759	7.36702915
 1.25694502	12.37232562	13.30983352
 1.49257105	12.21786299	19.53294100
 1.51004054	12.19912678	25.56340923
 1.76803562	13.02193122	30.74239808
 1.54125850	12.93528788	35.54578437
 2.55487191	11.94640963	59.08455369
 16.67887966	11.53623893	62.98632126
 0.83992640	12.44471907	69.88111260
 1.15828598	12.16068707	75.17867524
 6.27446867	0.04640078	81.12434789
 6.79746063	1.62232517	86.29115999
 6.98439050	15.84787660	2.45212263
 5.63212892	0.71240933	9.54247336
 7.72702550	15.84823720	15.84650585
 7.23964980	1.22735439	20.29205982
 7.69384594	1.92399363	25.15147937
 6.61915989	1.63780657	30.97127701
 7.03915620	1.18726975	35.32552546
 6.11452593	0.83816178	57.29882006
 7.79886489	1.83297847	64.15851438
 7.46286432	0.08315870	68.39330925
 6.61881690	2.15494005	74.08142649
 6.43666337	6.32125621	80.41220063
 6.91675579	5.96182239	86.00197311
 5.86097308	6.56630315	1.23777805
 9.92159285	4.95320526	7.12042468
 7.44980185	5.69577874	14.59972063
 7.36087134	6.12195004	17.67085568
 5.69693984	6.63220476	24.75969269
 6.46973748	6.60454052	31.15336052
 7.27824793	8.09965372	35.65758534
 5.40089214	6.97935901	53.82886177
 5.73670796	6.00848671	58.35481412
 7.69790108	6.25177440	63.86498217
 6.22123355	6.16608964	70.40836172
 4.81412714	6.54814749	74.35393573
 5.95952651	12.08750200	80.26116833
 7.84272302	11.31782706	84.79032871
 7.21459795	10.95330911	2.25223580
 5.66748114	12.08530285	7.93786386
 6.79834898	12.38991832	14.93987302
 6.09740833	11.92309944	20.33129204
 6.56116604	12.03234937	24.85082297
 5.85922255	13.35258362	30.82191578
 7.15063145	12.82287132	35.61879391
 7.86551419	13.11121361	57.44703684
 7.75418849	12.21689535	64.43841156
 4.39402555	9.94481504	69.39582182
 5.84205214	11.51451212	75.12211535
 11.40121594	16.39040141	79.98698802
 12.05882620	0.83254991	86.33156974
 11.34949380	16.44031165	1.02599879
 11.75174787	0.68480912	7.43213038
 11.43886404	0.94751817	14.37295267
 13.32091705	0.91280803	19.44357032
 15.26471980	0.18532283	21.38341555
 13.35768552	2.07948559	29.16707126
 12.97117673	1.33971814	57.95730967
 12.57120966	2.00992465	62.76254407
 11.98986324	0.20525685	68.88203070
 11.43719263	16.44668631	75.28044799
 11.50378057	5.33214913	80.25140386
 12.15699270	6.36880887	86.29935800
 13.92988378	6.86423315	3.53480469
 10.93888320	8.87562670	8.53221073
 11.19248014	6.60108354	11.84454899
 12.18839540	7.51138462	19.47901961
 12.30740908	7.23418729	24.75406344
 12.21355270	5.76880555	29.01076108
 12.20801106	6.41812968	34.90576686
 11.71172476	8.43270745	57.87444894
 12.19640005	6.78022869	63.17939953
 12.71995480	7.67593672	69.84619173
 11.92802531	6.50114017	76.39915960
 12.79032512	12.14810842	81.05476901
 12.62082065	10.65423544	85.52975318
 11.56535463	11.66774324	2.10328853
 12.23994167	12.04668728	7.74248061
 9.16194586	11.97957159	11.56174777
 12.82902871	13.34677811	20.58699934
 11.41124372	11.98775210	24.66653997
 12.67421419	13.95548098	30.58538424
 13.02509801	13.19134768	34.83733243
 12.45756175	12.45553846	58.07623573
 12.04431227	12.11019644	63.38593668
 11.89459949	11.18130886	71.05532907
 12.38077017	12.17836762	75.72712347
 1.16822558	15.83507884	37.67908248
 14.26820773	15.99223199	50.40211087
 15.90586895	3.60816343	44.38232894
 12.75426075	3.34386394	47.35083379
 16.63706611	1.29299213	49.98517048
 13.56961242	7.14718737	39.18946901
 16.17005913	6.95426860	42.37829715
 0.09248254	6.29820871	45.77304731
 6.87601030	6.76681937	53.59207184
 12.13059014	4.11621078	53.44513541
 3.85434666	1.67486507	42.66440297
 6.77109161	16.73044287	44.41493677
 6.71231703	6.11815492	38.28592351
 6.28241465	3.67038476	41.03863549
 0.73016565	4.41862794	51.45655814
 6.25161949	9.25780475	37.70521703
 3.15674648	6.57169172	43.87687083
 6.28861261	11.02160837	47.75838793
 12.04943529	11.95379703	44.34737498
 4.96436414	13.56111673	53.09284382
 9.87856255	3.97225992	36.02232549
 13.02038085	4.98182491	41.10263697
 10.63436295	7.41109038	44.33183999
 10.86730886	9.42391728	46.66680241
 12.16408772	11.34145411	38.18033295
 9.25982754	6.33105096	38.54468059
 12.87004611	9.66940479	43.30304178
 15.46200922	0.24313446	41.94468894
 13.96591999	14.37590193	48.42397134
 15.94626825	2.24619376	53.09332932
 14.21585760	6.45803443	51.52921720
 16.05192575	4.37422329	47.52997303
 14.89098848	7.71023882	47.80418463
 2.04546681	15.32835856	41.02933058
 0.64471443	9.14088662	44.57570941
 11.77902687	0.19090336	48.20850212
 2.26409963	1.16316861	36.41199851
 5.77243352	0.12777324	40.00757162
 3.54853119	4.25535530	50.10605372
 2.86813294	5.67656894	37.07402161
 6.80930634	7.64043580	45.50741281
 2.33722803	8.30571158	46.99724755
 3.82106752	10.04402797	51.44490712
 3.37132550	12.90265367	42.91474477
 1.09099494	14.78232345	44.86909677
 3.49163373	14.82528787	49.31149635
 1.73152783	7.59018139	49.53586544
 8.04218895	2.73525093	37.37647068
 12.34994282	2.32022023	38.21196980
 5.01792784	5.07759260	47.05396659
 7.15387066	7.23256584	42.18070994
 8.59626710	10.24816932	44.37431869
 8.91125805	6.33546871	48.32453040
 12.26935444	14.73790271	37.98201705
 13.22322749	13.26934747	41.79241294
 6.17670300	11.62456558	50.60455305
 4.31633070	1.89330358	38.38965255
 13.77828485	1.10164300	44.90267471
 0.48119501	14.92302974	47.59308489
 15.75470890	11.31823226	51.67016584
 15.43469317	1.92214066	37.80045033
 3.62729108	4.94613455	39.79995082
 15.48935745	0.50878599	47.23318719
 15.73855072	9.39972461	36.04174445
 5.54438265	13.82432385	45.17243637
 16.59279189	13.76226413	50.85699957
 12.61760022	8.76707265	53.39909640
 6.32424630	0.05661130	36.54582743
 10.06854437	1.38533720	46.26555884
 8.67102986	12.11400313	37.96049517
 11.02023285	1.00865870	41.24892607
 1.50551600	11.52844198	49.61200434
 6.54416545	3.92831646	50.57736704
 4.25041970	8.95001494	41.27344230
 4.45195553	10.12542557	43.70088687
 9.73858468	12.95913035	49.40106642
 15.17159183	13.08899427	37.49031468
 11.34315318	14.30081545	46.85451876
 6.79522762	12.08325642	41.29998098
 13.44249953	3.22603969	43.51292823
 13.80320577	2.83981372	50.58780476
 13.46588299	5.89869696	36.37340288
 10.40230689	9.95551004	41.36543895
 9.52198286	9.52441018	52.23873580
 1.68027812	1.84738595	39.35469158
 5.13900488	4.68674652	43.72119636
 1.77043846	0.18870739	50.89171032
 15.96226063	5.13183609	39.15467689
 0.70439109	1.34854643	44.70104169
 1.32966152	12.15097999	37.16391445
 2.41912722	8.32699144	37.80659995
 14.95199624	14.36934790	45.17389286
 15.94860672	11.90775802	47.24880355
 9.78640373	16.67881126	38.76217225
 5.84981790	1.14754437	48.20939265
 4.01874403	5.40412146	53.01783865
 0.17068250	12.55837250	42.92259319
 5.73456665	7.56791427	49.88330206
 7.50060345	15.69539217	51.51934544
 5.11654363	12.78079994	37.84608521
 8.84725651	14.34523619	41.59911384
 8.40199712	15.51213421	46.99069380
 2.43365908	13.71404056	52.18557618
 10.74132874	2.90063539	49.75667512
 9.36032044	4.63192851	41.76579290
 14.00233054	7.00227373	44.56478618
 11.27478251	6.60870898	51.36488426
 8.94507934	14.94722241	36.26271506
 15.38812826	10.71689331	44.52934673
 10.72417543	9.15043427	49.54525171
 12.02313886	13.22662596	50.90886364
 15.64946934	15.03891921	83.60454795
 16.24828692	13.33868544	86.31408293
 13.99638372	13.68939340	5.97934446
 16.12273061	14.62602160	10.92111512
 15.99710640	15.69116369	15.80454752
 14.41561457	14.53594777	22.98653815
 15.63161293	1.43000321	29.61216330
 15.54637696	14.94840547	32.47517774
 15.27404398	15.42402063	55.49417441
 14.77054463	15.50705745	60.04361209
 14.82772055	14.09604560	67.14696393
 15.16584970	14.48818387	72.60356286
 13.60829153	15.54065930	78.23995819
 14.61335511	3.49300455	83.76956577
 15.64683046	3.85483970	88.28545324
 15.33605777	2.94363250	4.47934917
 13.88643018	1.62817459	13.88291154
 13.69845354	2.74549631	17.01878659
 14.90037771	4.51777164	22.51602506
 15.58877508	4.48888461	28.02645687
 16.19994516	4.44945965	33.70225967
 14.85648437	4.22567346	55.18903141
 15.18933575	3.48127032	60.89254148
 15.21062266	6.87780593	64.49734708
 15.52465016	4.48379159	72.85302577
 14.36565169	3.18334015	77.46157510
 14.87944269	7.99661415	83.10553452
 15.53283067	8.65608022	0.21102017
 16.35016456	6.16363551	3.82176527
 15.50512234	9.12895977	10.52862478
 15.07164143	10.30766191	17.14061580
 14.98904434	9.69130628	22.26612226
 15.40027070	9.82870411	27.94421216
 15.52667328	10.30766191	32.58082104
 15.97961059	10.94073046	55.23881849
 1.42169947	13.43834733	60.49767642
 15.68192769	9.86063472	67.41305174
 13.42963907	9.46893618	71.52997648
 15.22979859	8.98461277	79.01341480
 4.29386224	15.52676113	83.22991369
 4.32379587	14.96916480	0.29109489
 5.85483313	13.83875430	5.72550136
 3.49054153	0.88401772	9.85069474
 3.20639519	14.83132691	17.11361129
 5.72983809	14.99819249	24.20033733
 3.57482746	15.88116345	27.35873119
 3.16209700	15.66636515	33.17184365
 3.98352927	0.73365935	56.93905200
 4.51602111	16.00059238	60.97434719
 3.32282280	15.82495517	66.76423717
 4.52509013	14.16430479	71.88481804
 3.84891098	14.81901213	76.95816359
 3.17211606	3.09580830	82.92644266
 4.01441312	4.05607226	0.24934488
 3.19152066	4.20135170	5.11058840
 3.76243461	3.99081256	11.89231271
 5.87492390	4.94947569	16.63588459
 3.84353648	3.89225025	21.83167359
 3.69889024	4.44223789	28.62838660
 3.64387843	3.42292442	32.89168181
 4.59210020	5.06834855	55.08461928
 4.79988596	5.00709134	60.37927878
 2.99473016	3.26684319	65.10965642
 2.49950822	3.73510465	72.16805916
 4.14398232	3.06924346	77.96050001
 4.89881776	9.20900599	81.37970381
 3.34580743	8.63063274	88.40947209
 4.61876177	11.25291053	3.03384749
 2.98103433	8.80683977	12.57736695
 4.08910228	9.72807475	17.19216157
 3.82835399	8.45057274	22.99058396
 4.37069775	9.81515782	27.98150777
 4.68680101	10.47989311	33.20509345
 4.10179526	9.79659781	54.71095334
 4.34224172	11.02491078	60.23246841
 4.39931203	8.98276550	67.38762978
 2.85885403	7.12848235	73.50579761
 3.13018416	8.94828402	78.08496771
 9.83019949	15.01965543	83.57182567
 10.43987000	13.48531961	88.75455097
 9.69825528	12.99554241	6.74471840
 9.10397833	13.98670782	10.61737943
 9.24207993	14.83088718	16.87320830
 9.51089440	15.38830764	22.05219715
 10.60955033	13.97395314	28.82656749
 10.21987491	15.25222916	32.47289063
 9.44404258	15.89533421	54.64401295
 10.09250469	15.83658211	60.34171852
 10.05081034	14.31155454	67.82313438
 10.26719891	15.26762272	72.16005428
 10.10314823	14.77160012	78.33416596
 9.48072321	2.81098452	83.77924172
 8.63542668	3.87822014	88.69847300
 9.61697755	3.25041175	5.38667761
 9.75375979	4.77031293	11.78790058
 9.22888553	4.10482123	17.71211036
 9.59859339	3.86061000	21.84671593
 8.08506955	5.88940262	28.94698849
 10.08124556	4.64163207	33.19445008
 9.23381140	5.04981486	54.17191640
 8.75901435	3.07955272	61.02070360
 9.94604655	4.88370585	67.04184814
 9.29600121	2.93414134	72.90650726
 7.26828168	2.83103136	76.63234899
 8.70303490	9.35467235	83.02381733
 8.33130391	9.19458007	87.14449640
 8.13767131	9.34288531	5.01895743
 7.71359371	7.74571761	11.76028004
 10.98787844	10.14202784	16.62216284
 10.39043486	9.69394516	23.31727834
 9.71162554	10.20439351	28.07624395
 10.17404629	10.86648975	32.53420087
 8.53224628	12.39660345	55.37612814
 9.79809302	10.46819409	59.93392298
 8.81950643	10.16929627	65.60154477
 9.39196857	9.46207502	72.82646026
 10.13499082	8.85521942	77.57302380
 15.07014605	1.01408835	80.55584320
 15.23182172	0.47580945	86.08402468
 14.88322507	16.19333647	3.08921107
 14.47419786	0.97892976	6.69784251
 16.52057246	2.83818271	14.87759536
 15.44935395	1.52110621	19.33889443
 15.64137684	2.23903252	24.94819763
 13.28370867	2.69547174	31.61841960
 15.16391442	1.58390289	58.00507340
 14.42458669	0.37876717	63.98892145
 14.60376706	0.56547524	68.79600305
 13.88185602	0.42758035	74.24178248
 15.61322861	5.57160163	80.69306523
 14.38236460	5.98187795	86.89744399
 14.27997582	5.54080580	1.45301391
 13.77524513	3.64294599	10.75125842
 14.61529022	5.54832664	13.55155531
 14.74028543	7.97948766	18.89116391
 15.29621051	6.87227301	24.93429884
 15.42692338	7.39365509	30.49970798
 14.92025741	7.60613823	34.93329978
 16.06230793	8.37660478	57.29327842
 1.82885310	7.52888043	65.43089680
 14.54544764	7.42450373	69.13923383
 14.33328135	6.04195663	75.50721594
 15.53670106	12.92877861	80.79175959
 15.77162148	10.65696234	86.32506070
 15.74904154	12.75496402	3.53817366
 15.76338128	9.75771820	6.82204645
 16.53135396	13.14217641	14.56145672
 15.13858109	12.30696935	20.00002344
 15.27641899	12.36801549	25.11303932
 14.84909547	13.94642084	28.76349766
 15.02801180	12.57129767	35.14616985
 14.62945227	13.36736142	58.30309132
 15.94393465	9.66746834	63.54743621
 15.13119236	12.46987653	69.70210837
 15.21053481	12.28559426	75.34932321
 4.09132775	0.86953464	80.96337587
 4.45464068	0.69994853	86.27695363
 3.91443438	0.58836315	2.51439135
 6.46573515	0.22718081	7.62149633
 4.04891203	2.35102696	14.72709058
 3.25437015	0.59500620	20.26303285
 3.78075740	0.65903959	24.54761480
 3.95573310	1.52663040	30.75717577
 4.05108469	2.32410152	60.17907543
 5.08524637	1.69734861	64.17830618
 2.23639364	1.97199491	68.92126203
 3.10095412	1.21718578	75.67223466
 4.07182642	5.56520669	80.23117305
 4.35219909	6.66364267	85.43502594
 3.97046680	6.70331406	2.97654818
 2.50472429	5.25681789	8.12203152
 2.17356192	5.75801247	13.98917088
 2.87400115	7.21126418	18.88500624
 2.83067948	5.86804530	26.34293588
 4.08451068	6.91339570	31.07542538
 2.91333809	8.17363928	35.26650233
 3.23036507	6.99419833	58.55923941
 5.38793528	6.61765579	63.57831128
 4.30511264	5.96000161	69.03869315
 3.84007950	5.12857676	75.69686444
 3.61085713	12.12268708	81.37882401
 2.94562930	13.07224598	85.67543697
 1.67643991	14.88568792	2.61606753
 3.98376682	10.75723998	7.17810219
 3.57605897	11.83082645	14.07678197
 3.32385197	12.00991880	20.92372107
 4.26895104	11.86178942	24.90447971
 3.80316149	12.69426976	30.48062073
 4.32501867	12.59029758	35.69672905
 3.99648613	12.69180673	57.91174454
 4.31910755	11.61188685	64.98958680
 4.08864495	12.43152466	68.98424334
 3.14784711	11.05006825	74.28550040
 8.47540464	0.18257649	79.88125620
 9.11163110	0.25924402	86.15499300
 8.13768003	16.64614470	0.74581102
 10.01439375	16.21437024	7.46816887
 9.21252450	0.32022965	14.23537837
 9.08805703	0.41993194	19.07676570
 10.05652800	2.38805930	24.98646155
 9.87611612	1.71401760	30.68900420
 9.65963954	1.29092508	35.25427551
 11.66017848	3.17897722	57.54933800
 10.43555988	1.48888540	63.20438158
 8.91318696	0.56411716	70.25240381
 9.33690395	16.65566753	74.52405528
 9.12491352	5.16077124	80.31130678
 9.23689018	5.77604491	86.28409660
 8.20622069	6.45856620	2.01383023
 8.70564730	6.44253056	8.26442593
 11.81587279	8.10431573	13.79530044
 9.27620952	6.93616927	19.15496460
 10.34416635	6.17831658	24.90808651
 11.02596644	7.51440171	29.52903880
 8.45053754	8.81589991	54.28697190
 10.27705083	7.06998707	57.07820887
 9.88385690	7.17662445	63.04270591
 8.28739280	5.69438025	70.53511652
 9.67652848	6.98800574	74.91047646
 10.43626348	12.08970115	80.87963444
 10.42509220	11.72474330	85.44732339
 9.47122317	10.79787884	1.97425557
 12.08468726	9.92810212	10.14809752
 10.41955057	12.48790880	14.46689668
 10.14123622	12.38657567	19.56487111
 8.79388292	13.59676853	24.59995275
 8.07000139	12.63577448	29.84376923
 9.44615372	13.00988031	35.72399732
 10.04403719	13.44327337	57.90602766
 9.49321385	12.68380208	63.46202461
 8.74438626	12.15690469	70.01340903
 10.28224058	11.80127085	76.55344643
 1.06489582	16.60455747	79.30061410
 2.11976369	15.90749426	87.13467024
 14.26722131	12.28682577	0.37108915
 1.07693784	13.89311531	7.84743814
 2.78087485	14.38218874	12.50866786
 1.11521930	14.37145719	20.31616208
 16.54613528	15.64575553	26.35824198
 1.39406155	16.18630918	29.92531117
 1.52877658	16.38827100	58.09928206
 15.90593383	13.97448089	63.45058907
 0.75903408	14.92755830	69.21092368
 1.81718911	14.42748961	74.02952845
 1.07304113	3.66148857	79.33052085
 1.39637487	3.55929325	86.89520069
 1.24467417	2.93922565	2.17744074
 0.84221524	2.19535025	8.08360041
 2.44881525	4.27950673	16.92009223
 0.29877191	4.45331244	19.57604289
 1.43254519	3.38877739	23.28948166
 1.38656703	4.25403259	30.51017611
 1.71738657	4.10746011	35.35041900
 1.07054290	3.98283439	57.99434241
 16.63655497	3.99818386	63.77367665
 16.35255901	3.54644185	69.84927011
 0.33588707	4.21486278	76.00570186
 1.69554544	7.99798631	81.42808357
 0.89667567	8.12332452	86.04132782
 0.83894652	9.76792184	2.59037377
 1.17103177	8.57115222	8.60745463
 0.60091028	10.33730536	13.52516684