Cl
  1.000000
33.52875900	0.00000000	0.00000000
0.00000000	33.52875900	0.00000000
0.00000000	0.00000000	67.05751700
Cl Na 
1723 1725 
car
 32.20681559	32.49083804	65.28243814
 33.02657329	32.78210204	37.09743215
 32.75590468	32.76367430	43.13700161
 32.04603010	32.94478961	48.42078592
 32.55732758	32.91377014	54.26665707
 32.62646523	32.93581497	59.47014336
 32.83682030	4.63866626	65.20273559
 32.78111562	4.21561177	36.86940038
 32.69664494	4.73035165	42.89421585
 32.76161161	4.82291684	48.68712229
 32.88662023	5.13571066	53.17482993
 33.06920042	4.82992536	59.65457366
 32.64774559	10.62412744	65.12439564
 32.59652371	10.43496824	37.12296832
 32.73158157	10.13061093	42.65161919
 32.66052474	10.25469952	48.37623895
 32.24559328	10.42579376	53.70844817
 33.04771955	10.46844939	59.67140845
 32.32617495	16.19789268	65.37388649
 32.88520733	15.84028734	37.10083666
 32.75271441	15.99416825	42.82886159
 32.80209524	15.70049857	48.90295294
 32.58730933	15.86960690	54.31820284
 32.37809927	16.21728169	59.81375077
 33.01047681	20.77403249	64.98735019
 32.25959086	21.51459091	37.44425496
 32.61851556	21.09153609	42.94103273
 32.67555200	21.65825728	48.51848672
 32.66925463	21.77808974	54.36312803
 32.94391853	21.43154989	59.49653116
 32.90021044	26.93532653	65.15535073
 32.58557724	27.25718082	37.36528133
 32.73396413	27.42127661	42.66069878
 32.76897184	27.28441992	48.41624613
 32.24190444	26.44493121	53.53130032
 32.74258102	26.95405335	59.88109127
 4.72435537	32.93833365	65.35233152
 5.08239591	32.42567255	37.35951170
 4.80359422	33.03896821	42.41403508
 4.89107075	33.04976447	48.46835988
 4.74779231	33.10247637	54.18929080
 4.72185848	32.30858308	59.60794589
 4.71490697	4.72422293	65.12345013
 4.42886038	4.61747105	37.25424481
 4.29906888	4.62562390	42.77618054
 5.22659204	5.44073922	47.84593134
 4.66409883	4.45222154	53.94754510
 4.48129534	5.50114731	59.34444673
 4.72195303	10.33499755	64.91896896
 4.43043992	10.61930365	37.08267748
 4.69948105	10.72920523	42.50747973
 4.77027368	10.81839374	48.34228504
 4.76677428	10.53437128	53.84530452
 4.62813957	10.41217438	59.69628277
 4.79797614	15.17056915	65.35970986
 4.26752636	15.45515925	37.00663560
 4.98095934	15.47416972	42.81675503
 4.68261743	15.44910597	48.58762436
 4.98092146	15.82052012	54.15987669
 5.31624425	16.12232355	59.84411106
 5.32453860	21.71481594	64.95566552
 4.39822616	20.94872101	37.48492468
 4.66035333	20.96366478	42.74128045
 4.57989470	21.13296221	48.48216836
 4.58688410	21.76929380	53.92437338
 4.68173797	20.91155137	59.59744736
 4.54280049	26.95509375	65.33436279
 4.54746334	26.82088516	37.10887618
 4.36815925	27.04428226	42.73248452
 4.67021816	27.08712665	48.45587511
 4.74178630	27.06688668	53.73464687
 4.88738225	27.07473676	59.70857843
 10.25242963	32.61483209	65.43044481
 10.63112623	32.23698644	37.59558232
 10.23332427	32.42879374	42.71356893
 10.20731501	32.29032936	48.09117610
 10.12209865	32.72434707	54.09612981
 10.20438292	32.38689520	59.53313317
 10.02487095	4.90610907	65.08429390
 10.33490300	4.21422134	37.19919930
 10.23540506	4.81400758	42.78412551
 10.30548855	4.29380084	48.66555793
 10.65325789	4.23681637	53.98594492
 10.37122135	4.52329815	59.28524030
 9.87619169	10.01144067	65.30311264
 10.54411307	9.89908009	36.81974630
 9.83353640	9.76525005	42.63544626
 10.48717620	10.00718453	48.83930061
 10.56435304	9.61155791	53.81655294
 10.60681922	10.33991555	59.88478010
 10.60161723	15.99870804	65.28531289
 10.19492512	14.95010415	37.52313472
 10.22083984	14.98935459	42.47191778
 10.44584463	15.54018617	48.10763268
 10.15472883	15.36237645	54.09499519
 10.20901760	15.97903571	59.80552214
 10.63963851	21.49160795	64.92795400
 9.93142629	21.40260854	37.39308740
 9.59292598	21.89186891	42.83018531
 9.97502743	21.72701672	48.68173153
 10.01806125	21.76021421	53.88805503
 10.72475998	22.06608468	59.24371963
 10.61173756	26.63598211	64.90118799
 10.50798348	26.61876844	36.82986595
 10.94229323	26.71495608	42.98397167
 9.71304209	26.97136123	47.83212285
 9.86200500	27.27940704	54.51209094
 10.22490687	26.89115776	59.22811400
 15.83196416	32.39758249	65.23678404
 15.52041895	32.73602480	37.36206592
 16.22342918	33.07041483	42.65029480
 15.57896386	32.43560344	48.44934907
 16.12903869	32.78256641	53.79375874
 16.04155277	32.81730556	59.95694472
 15.92266616	4.21251908	65.18190014
 15.28047073	4.75012826	37.38703479
 15.45619965	4.53925382	43.29816564
 16.02547405	4.88131020	48.35145918
 16.39480741	4.16873823	54.48551403
 15.98508866	4.21250936	59.77298718
 15.86847195	9.99271385	65.40070949
 15.91245162	9.95384161	37.36613229
 15.64252131	10.06298644	43.00146898
 15.60270322	9.78823268	48.73110196
 15.90185855	9.92660285	53.67912861
 15.81947973	10.13978507	60.09512545
 15.83990880	16.09640883	64.98470142
 15.95302611	15.83291001	36.93891622
 16.02188010	16.34070809	42.76974905
 15.35376962	15.84331398	48.45909052
 16.01734031	15.92531426	54.40020346
 16.18644864	16.57233347	59.80637377
 15.78212098	21.50513278	65.04769190
 15.58170651	21.01568331	36.81265295
 15.74447824	21.53284463	42.90868686
 15.70693005	21.49141885	48.06961174
 16.72990322	21.18942598	54.05404183
 16.03786393	22.08046080	59.89849404
 15.29900811	26.49572058	65.12884088
 16.02689299	26.89919695	36.79033219
 16.37210844	26.71807727	42.95257131
 15.84454348	26.90600664	47.83770271
 15.52647224	27.62065034	53.69539610
 16.50187178	27.18066585	60.08718048
 21.90548829	32.66797383	65.70552078
 21.18573749	32.79814857	37.21499403
 21.44025128	32.83870193	43.53423626
 21.66118937	32.47674557	48.74784220
 21.57654032	32.66719931	53.75914298
 21.07725485	32.29997625	59.75321996
 21.04642180	4.47070226	65.07750232
 21.83077046	4.52670300	37.24440881
 21.55677344	4.69475216	43.02974848
 21.34046969	5.38411451	48.07575958
 21.44034583	4.98169698	54.36634411
 21.27227790	4.56362688	59.97255035
 20.96650198	9.89179731	65.45931106
 21.53643858	10.09249543	37.34456860
 21.84959183	11.24910954	42.74459108
 21.62884317	10.54827466	48.11283501
 21.69665643	10.36791106	53.73842959
 20.82501096	10.06355408	59.47411518
 21.16436257	16.21699770	64.86524784
 21.26253611	16.19741992	36.95537348
 21.64038176	15.99520865	42.65010570
 21.28183057	16.00495043	48.67198942
 21.53218278	15.23715325	54.05981146
 21.45869444	15.79091658	59.49634139
 21.09995382	21.37442393	65.53439737
 21.47212472	21.32543171	37.61894382
 21.23529735	20.89499989	43.19195257
 21.66705322	21.44308882	48.69128388
 21.66780996	20.98125631	53.83613038
 21.43713009	21.59649664	59.63499555
 21.16426802	26.89673795	65.41266384
 21.49454004	26.71902278	37.52313472
 21.45708640	27.34305904	42.89970183
 21.76588896	26.71202399	48.73989790
 21.89792186	26.52172984	53.65425430
 21.44412888	27.09374723	59.84515112
 27.32764285	32.53198018	65.46994168
 26.80423914	32.63847690	37.16288095
 27.09062604	32.13843436	42.87700219
 27.00862576	32.80079030	48.41170634
 27.18946178	32.82587920	54.24603890
 27.10263772	33.19674583	59.62421337
 27.05374005	4.05816508	64.99529450
 26.95395880	4.33894363	37.33520469
 27.07511530	4.41771877	43.50122787
 26.35366191	4.78468769	48.40612648
 26.86543214	4.62253088	54.34146912
 27.55813329	4.79283115	59.91845035
 27.00758537	10.27030515	65.40726369
 26.82958655	10.54590987	37.34324421
 26.81662902	10.36450621	42.55060844
 27.26881430	10.38323303	48.53702410
 27.44189478	10.02789759	54.12109867
 26.66236957	9.67341311	59.90587171
 26.56438513	15.75090939	64.99964519
 26.88340222	15.55512960	37.39478999
 26.98394055	16.07966826	42.72416201
 27.40812998	15.96834809	48.49985478
 27.09289594	15.66446387	54.48835124
 26.95216166	15.82837021	59.16370526
 26.58538184	21.45869444	65.23473141
 26.82797851	21.77572529	37.31496472
 26.85219097	21.84571389	43.10664199
 26.99226339	21.36430394	48.39553340
 27.08116825	21.51411782	53.91425306
 26.86363500	21.83294580	59.82226305
 26.56258832	27.49533225	65.13413776
 26.87820023	27.23211741	37.87506531
 27.15238669	27.19296118	42.85080415
 27.28281188	26.84490852	48.21933173
 27.24044025	27.04626850	54.12743561
 27.28290643	27.17186991	59.90511463
 32.67782190	1.89907327	34.45648584
 32.44922315	1.93013330	39.99866154
 32.54512680	2.23489732	45.48560263
 32.44458847	2.20092430	51.19319783
 32.58213048	2.26223063	56.57449382
 32.90218898	2.10590950	62.70845412
 32.19707381	7.02777575	34.70551331
 32.61718379	7.44008594	39.53285655
 32.71102274	7.27055213	45.11106762
 32.84249404	7.74979645	51.03392616
 32.68686427	7.63036131	57.08702113
 32.55506204	7.29494396	62.28208969
 31.98209445	13.16595439	34.23535831
 32.70394616	13.27453158	40.24456816
 32.13881290	12.85563869	45.34013945
 32.98073076	12.94974520	51.35171375
 32.64238636	13.41394215	56.98913124
 33.11283474	13.27093763	62.40977190
 32.18789967	18.25518849	34.45213514
 32.88285965	17.96312651	40.08141856
 32.64505625	18.15077256	45.91906108
 32.69767193	18.63558769	51.33175743
 32.40268993	18.78937405	56.93436939
 32.61972494	18.68618761	62.18750976
 32.49017585	24.12924400	34.37770063
 32.74958853	24.01414078	40.64473456
 32.84813961	24.14144478	46.03908263
 32.85501535	23.98226734	51.40373228
 32.83724779	24.61292418	56.92434362
 32.37516718	23.67705907	63.05376413
 32.81179745	29.91723219	34.99502207
 32.92187673	30.50835494	40.06496130
 32.50493052	30.25062541	45.62226987
 32.34111839	30.21695516	50.93480644
 32.77400249	30.32562723	56.60173259
 32.79014424	30.07234294	62.67412202
 4.68501038	1.57454237	34.41978861
 5.26725169	2.03119167	40.00915939
 4.37061824	2.31354003	45.77094913
 5.06837921	2.09917558	51.44676577
 4.84485002	1.79715456	56.90996783
 4.61443502	2.03488955	62.11884487
 4.29194704	6.97122648	35.06330808
 4.50688851	7.68471612	39.95042572
 4.91180293	7.91097892	45.66076424
 4.62704251	7.51385793	51.36892674
 4.86808813	8.25832244	56.57014313
 4.83312199	7.54047272	62.27944092
 4.60408805	12.77713747	34.29551091
 4.95376786	13.00630385	39.80023298
 4.70808789	13.02257167	45.90421186
 4.43661592	13.19130146	51.57870478
 4.60353952	13.38651395	57.06101153
 4.75333461	13.01065455	62.38120875
 4.37122344	18.58867626	34.69567732
 5.13156785	18.22057240	40.07706787
 4.94229532	18.13109990	45.83970857
 4.93854043	18.59056762	50.84486152
 4.89131685	18.62962896	56.51585471
 4.88630397	18.46373637	62.76463491
 4.43829001	23.96609440	34.18296158
 4.70179823	24.06303845	40.47051913
 4.47044711	24.41137510	45.94384084
 4.57770963	24.37307017	51.30536963
 4.58759324	24.49384847	56.49674935
 4.66599991	24.13766173	62.35321357
 4.62193507	29.78453710	34.82912915
 4.21008825	29.55139856	39.67822585
 4.70315078	29.44272649	45.99973731
 4.92314302	30.01550063	51.19499497
 4.48463413	29.88450779	56.95129940
 4.52059305	30.21591476	62.72056069
 9.71994633	1.92176319	34.48656180
 10.31021745	2.01947337	39.87220849
 10.85272618	1.45627068	45.78787914
 10.71076240	1.86283036	51.22677352
 10.16882097	2.07501979	56.88253996
 10.50675398	1.96681142	62.30346427
 10.04246281	7.36775133	34.25711177
 10.01607501	7.47456960	39.65089187
 10.27824979	7.56019266	45.97552485
 10.43912949	7.28256347	51.33345935
 10.45568096	7.42739329	57.15946873
 10.20069442	7.40535618	62.09784849
 9.99394335	12.89347053	34.26420511
 10.41283657	12.07251953	39.50382065
 9.90087724	12.49188552	46.24990007
 10.68314509	13.41668480	51.24871608
 10.59991498	12.87029847	56.78285293
 10.46636859	13.23064679	62.69199754
 10.48102837	17.73216332	34.35206991
 10.55394940	18.22766574	39.97161120
 10.26009028	18.76043269	45.72782109
 10.51886021	18.73593658	51.16406737
 10.37689609	18.59113526	56.24923469
 9.68741103	19.50477416	62.30166713
 10.02364145	23.76492353	33.77418834
 10.08171326	23.72765899	40.05966510
 10.38285482	24.32701004	45.53771571
 10.42059211	24.29163719	51.48090944
 10.18849364	24.19166651	56.48625083
 9.84923658	24.29229939	62.29258754
 10.35968276	29.68636355	34.26486697
 10.52103556	29.43724085	39.76259091
 10.72031474	29.61996856	45.07389764
 10.02600589	29.88885848	51.03156172
 10.28609988	29.90881480	56.71447170
 10.73762296	30.00358350	62.83301547
 16.06415719	2.29925879	34.55692928
 15.89325171	2.18122314	39.56898647
 16.13565928	2.15987672	46.07123940
 16.11995910	1.82649289	51.58088013
 16.16185798	1.20495352	56.96444536
 15.65784328	1.47607545	62.68944399
 15.60563531	7.42051755	34.92210105
 15.57905841	7.39150042	40.51118817
 15.36143061	7.63829656	45.65357568
 15.36237645	7.46730593	50.90000157
 16.19713627	7.55547315	57.22718811
 15.65046595	6.98359758	62.31405735
 16.50830293	12.91522365	34.72367316
 16.63352648	13.34291281	39.91240478
 16.19817666	12.96922876	45.40284561
 15.54765805	13.45546249	51.20842525
 16.05015926	12.96837746	56.90826524
 16.04940286	13.29023176	62.48316568
 15.82089833	18.46288507	34.25105849
 16.18644864	18.34390391	39.47705464
 16.29067547	18.65005836	45.77444886
 15.82676251	18.78738780	51.30536963
 16.42138432	19.10668855	56.75381702
 15.67789415	18.79306255	62.28558875
 16.04684930	23.98188913	34.42867910
 15.80680619	24.05395886	39.85849456
 15.77086571	24.36436912	45.40899277
 15.82893785	24.23555163	50.81762275
 16.32983136	24.73095949	56.26465121
 15.62833428	24.35320874	62.16575630
 15.70711915	29.64191113	34.46594363
 16.47775387	30.09844675	40.12189850
 16.06094144	29.73308588	45.56542790
 15.49308564	29.88223789	50.81024509
 15.89533251	29.91165200	57.06838853
 15.49734178	29.33831056	62.10390177
 21.10487182	1.64416250	34.28009439
 21.52906158	1.89749406	39.79115339
 21.96034469	1.62607876	46.06007901
 21.54495086	1.78059336	51.23121877
 21.60699516	1.22899566	57.05486370
 21.75018878	2.01096108	62.55977487
 21.52821029	7.52282419	35.03446128
 21.64898859	6.93565515	40.56150478
 22.15782674	7.51940995	45.21340276
 21.48016391	7.62533904	51.47031637
 20.91930690	7.72390990	56.75315450
 21.75444458	7.52703305	62.65974556
 21.24749813	13.04262254	34.59873294
 21.60813011	13.62258457	39.81158313
 21.04736765	12.98020004	45.81237525
 21.90993353	12.80844327	51.33676998
 21.32183776	13.25845320	57.12352859
 21.56623123	12.86225928	62.38991013
 21.66941766	18.59614781	34.36701300
 21.34236138	18.98836958	39.98664952
 21.35891286	18.82588184	45.66123700
 21.80126180	18.68514722	51.68633612
 21.74054155	18.24941920	56.52748785
 21.31200143	18.53467115	62.47455885
 21.34983327	24.04648698	34.77361089
 21.36912739	24.40749716	40.10818457
 21.19320937	24.29116444	45.73585994
 21.74602719	24.18845110	51.20057549
 21.59545657	24.29485294	56.70614852
 21.60718426	24.24415846	62.70145533
 21.20153221	29.77801106	34.50595081
 21.54022197	30.08019303	39.72731262
 21.88628872	29.75691980	45.94213825
 21.48583866	30.01379804	51.40997466
 21.65466333	29.49796110	56.84565364
 21.48716271	29.86653772	62.71289937
 26.62567268	1.66380666	34.79725604
 26.48351980	2.23243798	40.09986139
 27.33653334	1.59072503	45.76971997
 26.89531935	2.04271148	51.20672266
 27.04957879	2.22710389	57.06356508
 26.97230708	1.33976730	62.60526803
 26.76867720	7.33995465	34.44163662
 27.40964313	7.41645990	40.00168784
 27.16855995	7.78370308	45.92889708
 27.56825327	7.29121758	50.89697460
 27.11228495	7.50816441	56.94193549
 27.20743186	7.51417947	62.42632303
 26.66473436	13.28909681	34.55815844
 26.52589143	13.21958096	40.48792190
 26.92842229	13.23755103	45.35555531
 27.51160006	12.78583885	51.50171672
 27.21972752	12.51392263	56.63398457
 26.40435672	13.22128322	61.85156300
 27.28716258	18.37757450	34.64129434
 27.05090285	18.81831540	39.37708395
 27.26975981	18.57203024	45.70048710
 26.69793152	18.60343059	50.75690217
 26.87375499	18.47385635	56.73225267
 26.73320981	18.81765321	62.47588323
 27.08958598	24.29598789	34.09367785
 26.84670533	24.02946275	40.26547066
 27.36443429	24.06067400	45.77236807
 27.14898184	23.84654560	51.35322657
 27.61147620	24.84454957	56.96217546
 26.84017929	24.49592926	62.85117465
 26.68119094	30.32874809	34.58851873
 27.38457971	30.21213171	40.11546701
 26.87101234	30.10033845	45.75033095
 27.62963538	29.89812717	51.41281186
 27.31600938	30.39438633	57.33179314
 26.69821551	30.00500210	62.17814652
 2.23828305	32.69124346	34.46802442
 2.05168713	33.06520815	40.09787514
 2.07667510	32.97985969	45.88321548
 1.71065204	32.64528995	51.17872748
 2.35006693	32.52639999	56.87856748
 2.10703506	32.87350948	62.02256302
 2.12731292	4.77669577	34.15572214
 2.10482183	4.16373474	39.91807919
 2.07551166	5.03905965	45.94733990
 2.47814645	4.72078992	51.27529299
 1.65188953	5.04745827	56.34277389
 2.21708785	4.81619232	62.57973119
 1.63622724	10.36223631	33.99749054
 2.32381156	10.40517559	39.90909415
 1.71025472	10.40952628	45.11381027
 2.02448592	10.48471687	51.27605007
 1.83178943	10.29489581	56.89625390
 1.74054863	10.11992330	62.78667135
 1.84778298	15.38507576	34.44239303
 2.04839561	15.55049526	40.19236053
 1.73825962	15.41732741	45.74796651
 1.92335211	16.32680472	51.25344498
 1.92899836	16.28991873	57.09959978
 1.68523824	15.86979600	62.96854810
 1.45919305	21.75170193	34.50595081
 1.91221051	20.98475605	39.99903974
 2.09661231	21.10449361	45.17897543
 2.08770305	21.37082998	51.31965087
 2.10320474	21.54797750	56.88556627
 2.32886200	21.26045532	62.41071741
 2.08419393	27.33615480	34.52883889
 2.02434409	26.53109308	39.70773451
 2.20946475	26.66946325	45.36633748
 1.99638647	27.26408507	50.54466580
 1.97275104	27.22190253	56.88660633
 1.67917591	26.87526848	62.51948403
 7.56703051	32.62542483	34.48552174
 7.80279871	32.99756589	39.73733772
 7.63858022	32.40827012	45.57299400
 7.65234142	32.52100890	51.07979686
 7.20947245	32.09644093	56.58726225
 7.05603613	32.84291885	62.52241645
 7.18399261	4.70150485	34.36814829
 7.87462234	4.57104177	39.68484644
 7.97641834	4.31544064	45.60382704
 7.77968332	4.94692967	51.48128765
 7.77986303	4.74348889	56.94486791
 7.39664541	4.45288374	62.03126440
 7.16297712	9.79267792	34.41600522
 7.18683015	10.21743499	39.76760346
 7.31986589	10.13524527	45.30344223
 7.66993329	10.45454602	51.35549646
 7.56769271	10.98570526	56.41342502
 7.43982106	10.10970876	62.14494902
 6.89984710	16.23090107	34.69378562
 7.10727914	15.00505477	40.07886501
 7.94235077	15.65197943	45.07966660
 8.04374040	16.01412457	51.37904706
 7.73558093	15.42356946	56.39602225
 7.37320881	15.88918501	62.70448164
 7.42878373	21.40440568	34.62559416
 7.23403495	21.14128506	40.25090509
 7.42309926	20.73506570	45.20990303
 7.50719006	21.72957027	50.88609787
 7.33101689	21.67007986	56.98373982
 7.61040499	21.67982130	62.09387600
 7.92068281	26.89219815	34.01035352
 7.38504043	27.06830528	40.10704928
 7.25512588	27.01080111	45.39584681
 7.58206883	27.23268471	51.03184537
 7.80185287	26.95670145	56.87100071
 7.40786279	26.80963023	62.09557859
 12.63356565	32.78670453	34.60289452
 13.24275302	32.42075455	40.08444487
 13.48998403	32.75243546	45.28698564
 13.16491399	32.35776441	51.53831872
 13.40145738	32.26053671	56.72043043
 13.13048700	32.54256789	62.17124227
 12.82007674	4.51150408	34.38148402
 13.11412463	4.74750865	40.33347301
 12.83984396	4.99384109	45.64884678
 13.26356030	4.06383982	51.63006145
 13.49840176	4.50105283	56.64609047
 13.16567040	4.39055579	62.00043135
 12.97055281	10.13959596	34.33419438
 13.53367972	10.49237786	39.80042275
 12.98133499	10.52529170	45.82798088
 12.86566412	10.06449993	51.46104768
 13.32409144	10.32780932	56.87610848
 12.82612969	9.90551158	63.04080727
 13.37308367	15.41430077	34.61102860
 13.40874016	16.01639446	40.12161485
 13.35303280	15.96134929	45.11144583
 13.15602351	16.02840614	51.84400042
 12.81534785	15.98017066	56.96548609
 12.87720271	16.38771407	62.07174434
 12.97622755	21.25856396	34.06048102
 12.91257555	21.47855587	39.44962677
 12.54787653	21.52054930	45.37948411
 13.18184367	21.49671538	51.30830138
 13.63875784	21.62572198	57.00842503
 13.10703129	21.57606756	62.40457024
 12.83710097	26.52901262	34.21265934
 13.23282214	26.72271162	39.77706125
 13.28777276	26.88349677	45.41750505
 12.85611144	27.34324848	50.80589439
 13.90386437	26.67438125	56.66784392
 12.91200791	27.26115331	61.64783891
 17.96464000	32.38878656	34.77134100
 18.63955984	32.86215329	40.41462267
 18.28044101	32.51022672	45.65423820
 18.66585309	32.54711305	51.11280525
 18.63483094	31.91305136	56.63521374
 18.08012143	32.90522970	62.51806576
 18.65090932	4.98461968	34.57092687
 18.43413316	4.87225911	40.26499723
 18.85312060	5.11181036	45.52570437
 18.63246650	5.30437440	51.43919967
 18.85671455	4.92922447	56.89218686
 18.80980312	4.58845392	62.48108488
 18.99612512	10.25034883	34.35055642
 18.49343447	9.91241582	40.23539402
 18.75296081	10.75275549	45.39367147
 18.65109876	10.29640896	50.82897224
 18.05061277	10.30066511	56.91706117
 18.33558107	10.65448739	62.34384966
 18.66471814	15.37136149	34.34024700
 19.05816941	15.83319366	39.90332519
 18.67360863	15.78893067	45.47557686
 19.24382888	15.53564637	51.40496211
 18.60049850	15.83669339	56.89672665
 18.64504548	16.10681247	62.62692694
 18.82928668	21.59488893	33.59798667
 18.53154996	21.46030215	39.91401282
 18.82739499	21.45689730	46.11729986
 18.38268160	21.34444218	50.80806974
 18.93351351	21.51459091	56.96662070
 18.69498355	21.74120374	62.28294065
 18.99536837	26.83582860	34.22590052
 18.53334710	27.01694861	39.95676266
 19.02326933	27.32433256	45.61725732
 18.65563856	26.59512362	51.20038639
 19.02724182	27.09970597	56.70189238
 18.87790070	26.61006706	62.86971270
 23.93535591	32.72540926	34.72461867
 24.18561356	32.51845535	40.19500863
 24.63836614	32.36126414	45.83706047
 24.81863485	32.89289447	51.28021099
 24.22902559	32.66354032	56.77906954
 23.71555276	32.71509548	62.54492632
 24.11117938	4.53112947	34.42754448
 24.59050886	4.69454394	40.24239281
 24.44845019	4.64736764	45.78551469
 24.20339453	5.01029801	52.02199923
 23.85430114	4.74805718	57.16457583
 24.88559715	4.86865544	62.67658102
 24.05282391	10.07613307	34.85107171
 24.22306719	9.89444575	39.88715226
 24.73880958	9.98041852	45.13461755
 24.68139997	9.96651548	51.34566047
 23.84531610	10.23871536	56.74748009
 23.90376645	10.22708222	63.05196765
 24.21219046	15.79734806	34.24443790
 24.24084817	15.70239026	39.96584225
 24.32436193	15.96276789	45.24234411
 24.70778743	15.19705151	51.12935706
 24.72301485	15.77275740	56.49637115
 24.08829097	15.78647133	62.08177011
 24.19213960	21.10222372	34.82676470
 24.46537987	21.60491437	39.87674829
 23.67403242	21.76324052	45.51265229
 24.48089095	21.53208823	51.16529720
 23.93195106	21.02788409	57.20732634
 24.13974253	21.19557382	62.21796460
 24.34308875	27.07483131	34.68498969
 24.52250617	26.98970984	40.52622649
 24.70438259	26.88510481	45.56334710
 24.89789248	27.00645042	51.21183043
 24.36805762	26.78381007	56.96151360
 24.55400107	27.32092738	62.29353373
 30.22121130	32.72309410	35.14682219
 29.85575554	32.65909508	40.16408103
 29.84885130	33.17407301	45.21198382
 29.45048203	32.74297833	50.84382079
 29.92375823	32.95550540	56.63247108
 29.56426120	32.99325510	62.64385628
 29.07613578	4.76022947	34.22230623
 30.07404519	4.75825261	39.85348134
 29.62923759	4.87373437	45.46413283
 29.63018310	4.32136114	51.16435102
 29.75332585	4.91159471	56.92680329
 30.35778433	4.39858559	62.45649422
 29.65354426	9.90683563	34.36389215
 30.10450004	10.10450711	40.08879556
 29.63774954	10.10696611	45.83904671
 30.11235013	10.09485988	51.11299435
 30.38426635	10.57040598	56.79694507
 29.62148205	10.81413793	62.31093649
 29.74821875	15.72036033	33.93998604
 29.89358738	15.42631244	40.25762023
 29.91638123	15.82600576	45.07001970
 29.61069987	15.53053894	51.14193571
 29.99686836	15.84946148	57.18765368
 29.34398530	15.76339416	62.05396337
 29.21696495	21.22205617	34.40493939
 29.82549013	21.63896316	40.05578716
 30.23199314	21.31502773	45.34997545
 30.14677712	21.65239344	51.57444864
 29.66262419	21.51402327	56.65261650
 29.52614571	21.74895894	62.65246311
 29.54648023	27.38760602	34.89287604
 30.80155154	26.78768767	40.41660824
 30.40138546	27.29113506	45.54244461
 30.02467477	26.75590911	50.64577110
 30.11348507	27.62670329	57.30653995
 30.26433968	26.85483907	62.29731644
 2.23152064	1.29437875	65.10765540
 1.97397115	1.63510168	37.41124724
 1.74586394	2.21733361	42.58645403
 2.14193481	2.57473107	48.40177579
 2.38727446	2.44263179	54.04231414
 2.19494680	2.12941249	59.52830972
 2.08765577	7.99982711	65.68931901
 1.35971423	7.45924762	36.96142609
 2.06542956	7.52863137	42.54928405
 2.06349998	7.85569704	48.52349926
 1.96334958	7.95812672	53.84010287
 1.86761625	7.87206879	59.07186865
 2.21750394	12.71140467	65.04844831
 1.87780229	12.93886880	37.09894496
 1.75168051	13.18941011	43.31878381
 1.90806803	13.17702022	48.55811570
 1.41206402	13.44061360	54.22144824
 2.14642733	13.47267581	59.76475855
 2.42209877	18.75901409	65.03246448
 1.55937195	18.38996438	37.34759491
 2.00107748	18.57590784	42.80455458
 2.12275401	18.28687250	48.33093556
 1.88510385	18.66386685	54.09518430
 1.59959640	18.33813462	59.44905176
 1.88584181	24.02530116	65.47082148
 1.80995114	23.90480685	37.74341062
 1.78201230	23.84342441	42.93734456
 2.28760654	24.10928769	48.42759562
 2.01099897	24.37619136	53.73105259
 1.80052152	24.46235356	59.40195123
 2.12516607	29.74405716	65.44092456
 1.91376155	29.86984801	37.53334959
 2.11286102	29.90862570	43.09661622
 2.16946695	30.44536480	48.14272187
 1.74522086	29.98353263	53.89410764
 1.95637928	29.70140154	59.61976813
 7.91185838	1.83310409	64.81512034
 7.71710960	2.14122568	36.78929146
 7.90042373	2.16508810	42.74525294
 7.78707004	2.26995801	48.56237184
 8.05034188	1.74340494	53.63798614
 7.93648693	1.12648080	59.69571546
 7.31892004	7.40615081	64.91509102
 7.35744224	7.23799771	37.12694081
 7.20936851	7.03384747	42.26204586
 7.99849334	7.60593125	48.98022466
 7.64128498	7.17357019	53.94461335
 7.75262427	7.82250926	59.57682919
 7.58103782	13.31160701	65.48830874
 7.37544081	12.93054562	36.86240158
 7.87039470	12.44847348	43.01972338
 7.85444876	13.23802379	48.79721263
 7.45843422	13.16056330	53.76500649
 7.69191374	13.39984967	59.40800451
 7.46132842	18.78019991	65.01960151
 7.59705954	18.35875313	37.58782712
 7.87012983	18.28904785	42.75158988
 7.86794509	18.72884324	48.56643887
 7.61292066	18.65299012	53.96220522
 8.14424989	18.69280820	59.05238509
 7.91451620	24.20935293	65.02669485
 7.27139370	24.09633050	37.28990130
 7.53696393	24.37467821	42.56611951
 7.58671257	24.42045469	48.40499120
 7.55901982	24.48278264	53.48202444
 7.52882986	23.86243488	59.36430849
 7.20072379	29.61249702	65.19050698
 7.84722264	29.57589468	37.30985762
 7.19728106	30.59385496	43.02539779
 7.35879479	29.84327110	48.49862495
 7.45060324	29.76316218	53.87708374
 7.81204863	30.09362331	60.36827084
 12.66997888	1.97110511	65.54815891
 12.81544240	1.84153121	37.08721727
 12.92827573	1.64520289	42.82725355
 13.54871803	1.57208338	48.59973092
 13.30829672	1.17778081	54.17633328
 13.07742774	1.28823091	59.09248682
 12.77278678	7.07523571	65.37472806
 12.41707280	6.85722032	37.36386239
 12.90983256	7.30634106	42.88088012
 13.02975957	6.93861540	48.67331380
 13.11989392	7.12202408	54.34998140
 12.93130237	7.26882104	59.80022594
 12.99514347	13.43995141	65.06755367
 13.17976288	12.59176165	37.29500840
 12.71112102	12.77221947	43.14201483
 13.04054175	13.06153846	48.52955255
 13.37204327	12.76531523	54.08846916
 13.57311959	13.37715070	59.53805117
 12.95078559	18.83969032	65.11531605
 12.69560994	18.38135755	37.37719812
 13.05605282	18.72449254	42.98482330
 13.13285145	18.29018279	48.25243468
 12.87966171	19.20845638	54.12015316
 12.66156115	18.68978156	59.28126782
 12.81071317	23.99985920	64.80254169
 13.20331314	23.95096153	37.13280432
 12.74989870	23.93015392	42.68027689
 13.05803906	24.31225570	48.07689486
 12.72332180	23.80984871	53.60308673
 13.19168000	24.42943972	59.42909544
 13.53226111	30.15528907	65.10264218
 13.36948972	29.38314119	37.07378699
 13.49868541	29.86445692	42.63724340
 13.12802800	29.71492670	47.94883378
 12.80456567	29.70802213	54.14209572
 13.27055943	29.99459846	59.25752811
 18.67606763	1.57289678	65.22796061
 18.86409188	1.61844627	37.59236691
 18.84196022	2.17143442	43.25541513
 18.82966489	2.19157984	48.66688232
 19.01305479	1.41163854	54.22106936
 19.03017357	2.02815564	59.99931636
 17.98781173	7.07152810	64.83649559
 19.03982080	7.38624177	38.00757164
 18.37681775	7.47073927	42.94746421
 18.43139017	7.69564013	48.37983323
 18.54535878	7.70008537	53.76141288
 18.66651495	7.02347233	59.72825110
 18.50998594	12.98246994	65.47927676
 19.06989710	12.81024041	37.65904556
 18.86872623	13.20794749	42.58550785
 17.98866302	12.81988764	48.34360943
 18.95848238	12.78470390	54.41552543
 18.74719151	13.35237060	59.82235760
 18.20893892	19.09760896	65.49123111
 18.71881780	18.63492549	36.94960385
 18.23598858	19.12976605	42.86158566
 18.49154277	18.32896048	48.92971895
 19.11699763	18.30285667	54.51095632
 18.99035582	18.85860624	59.42323193
 18.71106227	24.22524254	65.19127210
 18.76090545	24.07646873	36.94232140
 18.80724957	24.43095321	42.79102975
 18.38693774	24.59580540	48.32544958
 18.71758797	24.20055699	53.73795683
 18.80233157	24.69605974	60.06533247
 18.49485307	29.63699313	65.22729808
 18.60938899	29.80912776	37.20307724
 18.98345124	30.04245574	42.61634090
 18.52237582	29.60720048	48.08928441
 18.84772951	29.43752450	53.53470550
 18.51017504	29.86332197	59.39211523
 24.80889307	1.94386635	65.54624845
 23.98056508	1.86469355	37.16656979
 24.39822847	1.73232939	43.09671077
 24.20632662	2.20806492	48.46939994
 24.45166594	1.92638814	54.33475398
 23.97649804	2.02809897	59.76059696
 24.20840708	6.89104178	65.15816044
 24.44078921	7.21457989	37.19343035
 24.99975486	7.27160191	42.86158566
 24.53990860	7.85020201	48.48557287
 24.17133198	8.06635420	54.23506762
 23.87501420	7.11564960	59.64634503
 23.62504020	13.47910730	65.26077923
 24.25721020	12.80503842	37.13403415
 24.09330386	13.23565934	42.94169458
 24.87197777	12.90727901	48.40357226
 24.58398283	12.86575867	54.11514061
 24.23148459	13.24095588	59.57673464
 23.78923053	18.78076721	65.06585108
 24.33013123	18.42372918	37.30597968
 24.35056030	19.11255239	42.74941453
 24.35708634	19.22453476	48.14943701
 24.72556841	18.76913408	53.49687366
 24.26874912	18.35326749	59.80713018
 24.21323086	24.47398670	65.29757101
 24.42991281	23.99182001	37.05345247
 24.09254711	24.16594089	43.01168386