Cu
  1.000000
22.25591650	0.00000000	0.00000000
0.00000000	22.25591650	0.00000000
0.00000000	0.00000000	66.76774950
Cu 
2550 
car
 21.57900000	21.88570000	-1.22136000
 21.91834850	-0.24381200	2.57818000
 21.67132250	21.48250000	17.47170000
 21.69603750	-0.60113500	20.87610000
 21.76920000	21.44040000	24.98300000
 21.54420000	21.64000000	28.56710000
 21.48280000	-0.02309160	32.27410000
 21.80369750	-0.00153145	39.54310000
 21.82630000	-0.22421300	43.58260000
 21.83792350	-0.26899000	47.16800000
 21.80420000	-0.16911200	50.61750000
 21.72220000	-0.19992000	54.63710000
 0.03771880	21.98670000	58.08710000
 21.65580000	21.62610000	61.92260000
 21.79140000	3.42567000	-1.15440000
 21.56070000	2.98419000	17.22640000
 21.79249650	2.89292000	21.09010000
 21.67100000	3.27413000	24.85130000
 21.52515450	3.67031000	28.01330000
 21.86420000	3.16104000	32.08980000
 0.05473990	3.14342000	50.40020000
 21.85239650	3.41705000	54.14270000
 21.80180000	3.55078000	58.20700000
 21.98490000	3.46978000	61.93380000
 22.07983850	7.11974000	-1.21188000
 21.66860850	6.96068000	17.13440000
 21.53525050	6.89324000	21.12900000
 21.72349550	6.97701000	24.64310000
 21.85570000	6.66877000	28.35240000
 21.81760000	6.66234000	32.06220000
 21.80150000	6.99347000	50.66620000
 21.69630000	7.12778000	54.40450000
 21.99509450	7.22184000	57.91330000
 22.15838450	7.22034000	61.80590000
 21.91249050	10.94090000	-1.15595000
 21.97550000	10.86920000	17.43010000
 21.54670550	10.68660000	21.32490000
 21.96266150	10.38470000	25.07940000
 0.18218300	10.65850000	28.49600000
 21.76550000	10.96960000	32.16340000
 21.82624250	11.21850000	54.60020000
 21.75144350	10.88500000	57.93130000
 21.95730450	10.71770000	62.10860000
 21.51770000	14.45080000	65.42960000
 21.43980000	14.40140000	17.48320000
 22.03670000	14.37430000	21.17970000
 21.65627650	14.36680000	24.64640000
 22.19473590	14.49610000	28.77890000
 21.92313850	14.13580000	32.56110000
 22.22939920	14.49920000	50.86870000
 22.10110950	14.30430000	53.99180000
 22.12329350	14.79370000	58.28100000
 22.11582350	14.15200000	62.09200000
 21.77700000	18.31900000	-1.28734000
 21.48730000	18.31200000	17.43720000
 21.62030000	18.15690000	20.80780000
 21.96230000	18.21000000	25.06830000
 21.79649850	18.06420000	28.74290000
 21.73330000	18.08020000	32.21170000
 21.89675850	18.85350000	50.77560000
 21.88159250	18.36460000	54.04450000
 22.06182250	17.88840000	58.03470000
 22.19956220	18.47720000	61.88900000
 3.22540000	0.01782370	65.32810000
 3.22864000	-0.40336200	2.56739000
 3.37192000	-0.22837200	5.96302000
 3.12683000	21.68350000	17.49030000
 3.49165000	21.88190000	21.44630000
 2.64919000	-0.26386300	24.86300000
 3.00504000	-0.06441700	28.64880000
 2.74774000	0.04421180	32.39130000
 3.13435000	-0.52594000	40.05400000
 2.83120000	-0.27365700	43.34180000
 3.97706000	-0.17341100	50.70380000
 3.37220000	22.09940000	54.44320000
 3.25134000	0.05143780	58.22300000
 3.43803000	-0.33314900	62.21340000
 3.03531000	3.44185000	-1.18434000
 3.13218000	3.55096000	17.66350000
 3.06724000	3.32187000	21.17780000
 3.06250000	3.50040000	24.50140000
 3.32574000	3.67686000	28.33560000
 2.86975000	3.25819000	32.61290000
 3.58176000	3.41412000	50.74830000
 3.48438000	3.59591000	54.20410000
 3.07178000	3.28799000	58.25580000
 3.12804000	3.42876000	62.01880000
 3.71535000	6.95462000	-0.48311900
 3.01550000	7.10037000	17.24950000
 3.17729000	7.29796000	21.03600000
 3.14457000	7.12652000	24.60200000
 2.95404000	7.11457000	28.62650000
 3.38522000	7.03160000	32.37790000
 3.98592000	7.09574000	50.19740000
 3.65388000	6.98391000	54.37160000
 3.68134000	6.85702000	58.01360000
 3.58459000	7.02020000	61.89460000
 3.27513000	10.73550000	-1.13709000
 3.27250000	11.06280000	17.27390000
 3.15709000	10.59930000	20.92040000
 3.18579000	10.52560000	24.70070000
 3.10221000	10.34630000	28.70570000
 3.48934000	10.88570000	32.40140000
 3.46308000	10.26590000	50.87160000
 3.54669000	10.29830000	54.27550000
 3.51308000	10.68070000	57.78420000
 3.35671000	11.14490000	62.10850000
 3.43011000	14.48230000	-0.87236300
 3.07063000	14.24830000	17.35520000
 3.08339000	14.29780000	21.60370000
 3.32363000	14.20590000	24.99820000
 3.07102000	14.55680000	28.57870000
 3.34766000	14.65250000	32.47270000
 3.28560000	14.25750000	50.67610000
 3.54764000	14.63260000	54.62060000
 3.77723000	14.67270000	58.41560000
 3.52014000	14.95310000	61.33250000
 3.13927000	17.93530000	-1.03752000
 3.28489000	17.94430000	16.96860000
 3.08412000	17.63730000	21.21080000
 2.98074000	18.11330000	25.16840000
 3.18810000	18.34100000	29.07170000
 3.55914000	18.39590000	32.30500000
 2.93056000	18.51010000	50.62200000
 3.35304000	18.20700000	54.39650000
 3.37988000	18.80430000	58.10860000
 3.57786000	18.06070000	62.06700000
 7.16771000	-0.35819300	65.55570000
 6.97016000	-0.20042500	9.93200000
 7.01598000	-0.16599200	13.63200000
 6.95142000	21.42410000	17.53380000
 6.69498000	21.79510000	21.46410000
 7.24399000	-0.09063340	24.70300000
 6.70617000	21.84440000	28.33520000
 6.80990000	21.86420000	32.11260000
 7.25611000	21.81310000	50.93920000
 7.05783000	-0.25606500	54.78290000
 7.12359000	-0.11821900	58.26200000
 7.18310000	-0.28364000	61.90700000
 7.38263000	4.15894000	-0.87910100
 6.96777000	3.01669000	17.43790000
 6.96285000	3.16207000	21.27120000
 6.68842000	3.50273000	24.65280000
 6.82058000	3.41892000	28.70080000
 6.88933000	3.36205000	32.14670000
 7.12532000	3.15440000	50.81320000
 7.33461000	3.31385000	54.97380000
 7.50115000	3.40473000	57.64180000
 7.43418000	3.48543000	62.00160000
 6.99345000	6.97760000	65.87700000
 6.93027000	7.28980000	17.46710000
 6.89471000	7.10758000	21.12010000
 6.85248000	6.89429000	24.74580000
 6.95599000	7.02324000	28.54100000
 7.02474000	7.28799000	32.15900000
 7.31619000	6.98091000	50.68710000
 7.26993000	7.47849000	54.43650000
 7.36882000	7.14132000	58.18700000
 7.07040000	7.24426000	61.98530000
 7.19372000	10.80710000	-1.47834000
 7.14041000	10.32110000	17.46460000
 6.98948000	10.86210000	21.29930000
 6.65274000	10.99140000	25.02020000
 6.85915000	11.09940000	28.55600000
 7.16360000	10.88290000	32.10070000
 6.64395000	10.50070000	50.39310000
 6.95706000	10.32340000	54.46870000
 7.10521000	10.90700000	58.00970000
 7.09145000	10.73330000	61.76120000
 7.31878000	14.53530000	-0.97114500
 7.14544000	14.62730000	17.39830000
 7.14391000	14.02300000	21.11500000
 6.55714000	14.14300000	25.29700000
 6.75049000	14.31950000	28.51460000
 7.02426000	14.53180000	32.45200000
 7.71656000	14.35200000	50.90870000
 6.84999000	14.44150000	54.50250000
 6.87245000	14.39330000	57.90080000
 7.08671000	14.55140000	61.91590000
 7.07490000	18.25780000	65.47970000
 6.95482000	17.89740000	17.43350000
 7.15126000	18.05640000	21.17410000
 6.79206000	17.94420000	24.44980000
 6.84892000	17.97850000	28.41170000
 7.15867000	18.15390000	32.49440000
 7.26597000	18.19860000	50.87070000
 7.14866000	18.09610000	54.50510000
 6.94708000	18.00570000	58.21710000
 7.19491000	18.19050000	61.64440000
 10.39720000	21.62480000	65.72100000
 11.02210000	-0.31673100	6.53662000
 11.05000000	-0.17831800	10.30340000
 10.81060000	-0.13151700	13.68320000
 10.61310000	21.47990000	17.35980000
 10.56370000	-0.47992900	21.02470000
 10.73680000	-0.18724400	25.06130000
 10.63930000	21.46530000	28.29710000
 10.83160000	21.61120000	32.15390000
 10.62480000	21.93060000	50.92430000
 11.23080000	21.90510000	54.32320000
 11.13960000	-0.18842600	58.49990000
 10.75250000	-0.54982500	61.83860000
 10.85800000	2.94095000	-0.72760200
 10.34540000	3.19037000	17.69750000
 10.31320000	3.25369000	21.15970000
 10.26960000	3.21151000	24.98600000
 10.47810000	2.95904000	29.17340000
 10.57290000	3.10680000	32.26380000
 10.74880000	3.23881000	50.76010000
 10.93490000	3.19691000	54.22540000
 10.96130000	2.83162000	57.97990000
 10.98450000	3.09941000	61.97460000
 11.35630000	7.17475000	64.99020000
 10.64220000	6.88437000	17.16400000
 10.23970000	6.96530000	21.22690000
 10.38870000	6.52558000	24.51570000
 10.28330000	6.82478000	28.36300000
 10.75230000	6.67613000	32.23660000
 11.03010000	6.80663000	50.74890000
 10.91650000	7.16671000	54.32420000
 10.80160000	7.23316000	58.14530000
 11.09140000	7.01097000	61.97710000
 10.55020000	10.59440000	-0.99524600
 10.84940000	10.75940000	17.46150000
 10.53860000	10.84890000	20.47770000
 10.68810000	10.58690000	24.60650000
 10.50760000	11.09640000	28.58370000
 10.78640000	10.78370000	32.07850000
 11.14910000	10.80650000	50.85160000
 10.89240000	11.15000000	54.17950000
 10.74700000	10.93110000	58.53910000
 10.86890000	10.68470000	61.69460000
 10.51050000	14.44310000	65.19080000
 10.17300000	14.55510000	17.25930000
 10.61220000	14.59930000	20.88510000
 10.58640000	14.29940000	25.03250000
 10.79200000	14.74210000	28.58490000
 11.16070000	14.50100000	32.17350000
 10.52300000	14.45400000	50.75170000
 10.82930000	14.14700000	54.30980000
 10.85650000	14.62010000	58.25410000
 11.17360000	14.59940000	61.87080000
 10.53530000	18.45230000	65.08620000
 11.00360000	18.38070000	17.08050000
 10.61670000	18.33450000	21.01310000
 10.56240000	18.39010000	24.70990000
 10.52790000	18.16710000	28.27220000
 10.86370000	17.81060000	32.26510000
 11.00170000	17.77430000	50.75400000
 10.76410000	18.37770000	54.43290000
 10.79260000	17.96910000	58.01960000
 11.05610000	18.16690000	62.07840000
 14.70080000	-0.13469200	65.71070000
 14.54810000	-0.32749100	9.91701000
 14.35390000	-0.09502600	13.91700000
 13.98220000	-0.59108400	17.64840000
 14.22940000	22.01210000	21.10650000
 14.46150000	-0.54818300	24.79050000
 14.53200000	21.92800000	28.23210000
 14.56590000	-0.05590830	32.25960000
 14.59910000	-0.48030500	50.81850000
 14.62820000	21.93450000	53.97020000
 14.62970000	-0.40732000	58.12770000
 14.77680000	21.88590000	61.70910000
 14.79070000	3.10542000	65.29350000
 14.03470000	3.45610000	17.76070000
 14.38060000	3.23819000	20.92590000
 14.41840000	3.62752000	25.01500000
 14.20230000	3.00300000	28.50090000
 14.30850000	3.10214000	31.90250000
 14.66090000	2.89010000	50.74070000
 14.45370000	3.47214000	54.86040000
 14.57160000	3.42941000	57.88170000
 14.76520000	2.74999000	62.01440000
 14.66450000	6.84854000	-1.05843000
 14.57200000	6.90285000	17.94540000
 14.50190000	6.73620000	21.04290000
 14.22190000	6.39100000	24.71410000
 14.24490000	7.34277000	28.96240000
 14.30280000	6.96422000	31.90650000
 14.52890000	6.78616000	50.72960000
 14.65610000	6.97370000	54.40890000
 14.82930000	6.98333000	58.58480000
 14.48080000	6.74296000	61.71260000
 14.63120000	10.86790000	65.69780000
 14.56460000	10.62330000	17.75060000
 14.20160000	10.52140000	21.47080000
 14.16050000	10.61760000	24.90380000
 14.25290000	10.39770000	28.85860000
 14.05890000	10.76350000	32.17100000
 14.62380000	10.82810000	50.42210000
 14.98850000	10.68600000	54.04090000
 14.59810000	10.33940000	58.08010000
 14.34970000	10.57200000	62.10050000
 14.56790000	14.84680000	-1.33302000
 14.44590000	14.54780000	17.21490000
 14.25670000	14.30840000	21.24450000
 13.79360000	14.50590000	24.87680000
 14.24480000	14.62960000	28.70660000
 14.29070000	14.34490000	31.99790000
 14.51590000	14.53460000	50.87020000
 14.52440000	14.59800000	54.55880000
 14.18470000	14.85530000	58.11590000
 14.45450000	14.31060000	61.90210000
 14.54910000	18.37220000	65.62260000
 14.62090000	17.40420000	17.16700000
 14.17090000	18.05290000	21.29630000
 14.62810000	17.92320000	24.57360000
 14.33090000	18.07090000	28.36330000
 14.63390000	18.14300000	32.13240000
 14.62990000	18.21930000	50.83280000
 14.65570000	17.96160000	54.62420000
 14.51450000	18.18710000	58.17080000
 14.59120000	18.39820000	62.00460000
 18.43670000	22.06560000	-1.03041000
 18.19900000	-0.31635800	2.79626000
 18.29890000	-0.41288700	5.71562000
 18.07520000	-0.11538100	9.60699000
 17.78220000	-0.18679000	17.42190000
 17.88860000	-0.26078100	21.14430000
 18.01030000	21.81020000	24.97720000
 17.92150000	21.63060000	28.19380000
 18.03570000	21.81090000	31.75490000
 18.20470000	-0.31213900	46.88500000
 18.23680000	21.66080000	50.80170000
 17.96950000	-0.35310600	54.50350000
 18.08630000	-0.42741300	58.03900000
 18.49660000	22.07230000	61.69610000
 17.98070000	3.54179000	-0.94184600
 18.12330000	3.20088000	17.53630000
 17.80380000	3.26508000	21.03730000
 17.91980000	3.10005000	24.87980000
 17.86020000	3.45374000	28.48280000
 18.01050000	3.15117000	31.92250000
 18.46640000	3.52749000	50.52070000
 18.19350000	3.40634000	54.47210000
 18.17610000	3.48222000	58.17270000
 18.41600000	3.22448000	61.84640000
 18.19350000	7.27721000	-1.35544000
 18.28030000	7.00847000	17.18640000
 18.09980000	7.35342000	21.21590000
 18.06070000	6.87283000	24.81500000
 18.08480000	7.07404000	28.60590000
 18.04940000	6.90194000	32.21950000
 18.14590000	6.77257000	50.59340000
 18.34360000	7.24147000	54.07520000
 17.95880000	7.16762000	58.05540000
 18.00210000	7.11336000	61.98620000
 18.20790000	10.94220000	65.96490000
 18.34040000	10.94320000	17.47040000
 18.06070000	10.32250000	21.18870000
 18.43790000	10.34400000	25.26530000
 18.35860000	10.63150000	28.74470000
 18.20120000	10.44940000	31.63670000
 18.51050000	11.01790000	50.53360000
 17.50260000	10.99920000	54.42270000
 18.22040000	11.22640000	57.75080000
 18.56700000	10.59480000	62.00320000
 18.11990000	14.81490000	65.32850000
 17.99180000	14.05770000	17.36080000
 18.43160000	14.37120000	21.07240000
 18.33280000	14.30550000	24.66970000
 18.13830000	14.06580000	28.71630000
 18.30080000	14.10550000	32.40590000
 18.11170000	15.32120000	50.75300000
 18.25560000	14.39280000	54.75590000
 18.27660000	14.27810000	58.32950000
 18.24590000	13.67060000	61.72490000
 18.08510000	18.00760000	65.46220000
 17.70500000	17.94410000	17.29420000
 17.91470000	18.01000000	21.26270000
 17.92670000	17.79790000	24.80030000
 18.05930000	17.89050000	28.42020000
 18.11540000	17.76390000	32.09590000
 18.02700000	18.05670000	50.39880000
 18.41710000	17.94950000	54.58640000
 18.47630000	18.00610000	58.08890000
 17.99170000	18.38890000	61.53760000
 21.94293750	1.55593000	19.07460000
 21.49950000	1.50530000	22.82470000
 21.50810000	1.57190000	26.70770000
 21.68090000	1.51902000	30.03400000
 21.82628850	1.43818000	52.46470000
 21.93052850	1.98092000	56.08530000
 21.71880000	1.21608000	59.83230000
 21.85810000	1.54048000	64.07230000
 21.47140000	5.18700000	19.31180000
 21.63400550	5.15497000	23.02920000
 21.88630000	5.37004000	26.41300000
 21.92100000	5.02631000	30.43920000
 22.00490000	5.20963000	52.22470000
 21.90080000	5.13129000	56.29670000
 21.97820000	5.48750000	60.17560000
 21.25640000	5.16291000	63.66090000
 21.74850000	8.73291000	19.26820000
 22.15230000	8.70208000	22.95950000
 21.81670000	8.45308000	26.78970000
 22.01460000	8.60229000	30.45670000
 21.76890000	9.35276000	52.57240000
 21.96099350	9.21813000	56.16260000
 21.81160000	8.95075000	59.77080000
 22.13581450	8.52752000	63.73800000
 21.98770000	12.70590000	19.58780000
 21.99440000	12.27960000	23.26420000
 21.68990000	12.49460000	26.99590000
 21.89488150	12.34590000	30.55940000
 22.20951540	12.34910000	52.60540000
 21.86867150	13.20440000	56.38570000
 21.93331550	12.62830000	59.99990000
 21.60473950	12.49140000	63.91110000
 21.35790000	15.98960000	19.34640000
 21.75830000	16.18820000	22.87120000
 22.06002750	16.05680000	26.97870000
 22.12380950	16.29750000	30.47050000
 0.08697290	16.21710000	52.80820000
 0.42189400	16.59130000	56.20270000
 0.07815010	16.42920000	59.93390000
 21.25790000	16.51240000	63.37020000
 21.60300000	20.15190000	19.20470000
 21.61260000	19.83060000	22.93520000
 21.81170250	19.94940000	27.06030000
 21.58960000	19.76020000	30.41930000
 21.91919350	20.56550000	52.46660000
 21.85930000	19.85360000	56.37950000
 22.12863250	20.30520000	59.94320000
 21.86096350	19.87580000	63.54900000
 2.96497000	1.70402000	19.38090000
 2.92025000	1.17343000	22.92680000
 3.50330000	1.52876000	26.45300000
 2.77310000	1.85810000	30.29390000
 3.70578000	1.50597000	52.61190000
 3.44172000	2.01139000	56.50170000
 3.06158000	1.80777000	59.94010000
 3.41694000	1.55922000	63.52300000
 3.35641000	5.30747000	19.47010000
 3.20549000	5.14903000	23.20710000
 3.71828000	5.26037000	26.33140000
 3.11995000	5.30148000	30.28950000
 3.63871000	5.32616000	52.14130000
 3.44296000	5.39733000	56.01120000
 3.32518000	5.14626000	59.88880000
 3.44581000	5.61247000	63.85570000
 2.82154000	8.90302000	18.94350000
 3.12003000	8.74376000	22.98300000
 2.98663000	8.74939000	26.91440000
 3.58632000	8.76481000	30.55610000
 3.58160000	8.26930000	52.66620000
 3.38819000	8.51351000	56.15580000
 3.16259000	9.24780000	59.60820000
 3.32275000	8.60200000	63.77310000
 3.47919000	12.72550000	19.00390000
 2.97472000	12.43510000	23.05930000
 2.77046000	12.37920000	27.10610000
 3.30511000	12.61920000	30.71770000
 3.51307000	12.35260000	52.35530000
 3.72643000	12.89260000	56.59610000
 3.58639000	12.73760000	59.86230000
 3.34587000	12.73620000	64.24680000
 2.94266000	16.22060000	18.45790000
 2.95321000	16.38340000	23.07410000
 3.31154000	16.13010000	26.84100000
 3.64731000	16.27610000	30.53970000
 3.44382000	16.29040000	52.38010000
 3.74773000	16.71950000	56.96000000
 3.37844000	16.87180000	59.90030000
 3.14872000	16.22300000	63.81070000
 3.24877000	19.66070000	19.15750000
 2.90096000	19.89070000	23.34490000
 3.22458000	20.15730000	26.89680000
 3.14553000	20.50320000	30.93970000
 3.38591000	19.93490000	52.27460000
 3.46037000	20.45540000	56.42300000
 3.56462000	20.10230000	60.43160000
 3.68760000	19.82030000	63.64930000
 6.81390000	1.09191000	19.11570000
 6.55248000	1.57299000	22.82880000
 6.62542000	1.38777000	26.72150000
 6.80302000	1.51772000	30.33240000
 7.19284000	1.53120000	53.11590000
 6.78096000	1.62174000	56.45750000
 7.28071000	1.85770000	59.91650000
 6.97136000	1.82622000	63.78560000
 6.87489000	5.25089000	18.99320000
 7.16728000	5.22990000	23.30550000
 6.62914000	4.91933000	26.71650000
 6.93721000	5.07931000	30.45540000
 7.12424000	5.48848000	52.66240000
 6.98648000	5.45756000	56.21580000
 7.03215000	4.89851000	59.98410000
 7.37400000	4.92877000	63.81430000
 6.81259000	8.75910000	19.04260000
 6.90261000	9.02240000	23.03590000
 7.21221000	8.84175000	26.34770000
 7.21060000	8.78224000	30.36700000
 7.39734000	8.87727000	52.66790000
 7.35869000	8.85982000	56.43640000
 6.95318000	9.04885000	59.73290000
 6.96434000	8.99606000	63.95900000
 6.76722000	12.71370000	19.07990000
 6.94255000	12.68370000	23.00610000
 6.82593000	12.74660000	26.90190000
 7.20211000	12.76470000	30.63800000
 6.91134000	12.30550000	52.56190000
 7.10256000	12.37950000	56.10080000
 7.09256000	12.94480000	59.62650000
 6.83584000	12.87860000	63.80530000
 7.19382000	16.25350000	19.43880000
 6.68692000	15.87770000	22.80570000
 6.73504000	16.29110000	26.52540000
 7.18010000	16.08600000	30.27410000
 7.16692000	16.28610000	52.53400000
 7.24330000	16.52620000	56.34670000
 7.45562000	16.20930000	59.62210000
 7.39827000	16.06090000	63.75090000
 6.83556000	19.93410000	19.43180000
 7.09102000	20.11980000	23.06740000
 6.97860000	19.85980000	26.36990000
 6.94436000	20.00060000	30.21260000
 7.36642000	20.04490000	52.98370000
 6.97418000	20.20210000	56.32670000
 7.05214000	20.00830000	59.99180000
 6.66226000	20.06170000	63.33250000
 9.86411000	1.35202000	19.47540000
 10.82620000	1.57604000	22.96990000
 10.29030000	1.27998000	26.65700000
 10.28250000	0.92536100	30.30500000
 10.69720000	1.40003000	52.58270000
 11.05170000	1.04269000	56.15940000
 10.84810000	1.38922000	60.03260000
 10.88360000	1.22263000	63.63030000
 10.54400000	4.89696000	19.64520000
 10.38630000	4.92275000	23.02090000
 10.69180000	4.94259000	26.83000000
 10.54500000	4.95586000	30.26810000
 11.05370000	5.09737000	52.62680000
 10.97420000	5.23245000	55.73160000
 11.15260000	5.04719000	59.70800000
 11.42070000	4.97603000	63.80260000
 10.99590000	8.74388000	18.97900000
 10.46490000	8.79122000	22.80950000
 10.63860000	9.48991000	26.71510000
 10.37550000	8.99026000	30.28190000
 10.92330000	9.11040000	52.82780000
 11.07400000	9.33022000	55.99610000
 10.71880000	8.80264000	60.25610000
 10.97780000	9.22536000	63.70560000
 10.62120000	12.74030000	18.87890000
 10.52210000	12.35990000	22.77910000
 10.87680000	12.68270000	26.74170000
 10.62270000	12.81780000	30.29420000
 10.85430000	12.64230000	52.39740000
 10.92320000	12.81510000	56.63610000
 11.01800000	12.66730000	59.84650000
 11.02520000	12.52570000	64.00810000
 10.84470000	16.23870000	19.34880000
 10.73960000	16.26920000	23.18260000
 10.75170000	16.32630000	26.53280000
 10.78350000	16.58440000	30.29060000
 10.57390000	15.99470000	52.62430000
 10.79670000	16.48270000	56.05960000
 11.04150000	16.41450000	60.03110000
 11.05560000	16.38010000	63.36010000
 10.99470000	19.94740000	19.42520000
 10.49630000	19.83280000	23.17080000
 10.64060000	20.08740000	26.69710000
 10.70610000	19.80100000	30.26310000
 10.95760000	19.69010000	52.41430000
 11.30490000	19.98610000	56.46050000
 10.84070000	20.09790000	60.15620000
 11.19180000	20.33840000	63.57060000
 14.16980000	1.15458000	19.20570000
 14.30940000	1.59470000	22.67620000
 14.10690000	1.54916000	26.54260000
 14.76500000	1.21689000	30.19340000
 14.62990000	1.42653000	52.74550000
 14.44000000	1.43226000	56.30460000
 14.68920000	1.45008000	60.14120000
 14.60690000	1.41273000	63.76700000
 14.21610000	5.14496000	19.24220000
 14.31830000	5.04440000	22.62580000
 13.86600000	5.38115000	26.88040000
 14.24600000	5.24419000	30.27080000
 14.73670000	5.01480000	52.53810000
 14.62420000	5.45706000	56.31230000
 14.65590000	4.65810000	60.25820000
 14.43300000	5.15605000	63.90180000
 14.21800000	8.82441000	19.72270000
 13.94290000	8.90916000	23.46100000
 13.95040000	8.54772000	26.42830000
 14.43440000	8.72680000	30.48830000
 14.05890000	9.27880000	52.28350000
 14.36700000	8.63377000	56.58460000
 14.36130000	8.90324000	60.12070000
 14.86680000	8.96519000	63.70460000
 14.48760000	12.60800000	19.58970000
 14.00770000	12.63430000	22.60740000
 14.60100000	12.39060000	25.99900000
 14.06820000	12.74320000	30.27590000
 14.29290000	12.69220000	33.37910000
 14.60510000	12.58520000	52.59840000
 14.63200000	12.75500000	56.35230000
 14.61300000	12.33460000	60.32270000
 14.58130000	12.77030000	63.82720000
 14.20130000	15.94850000	19.61800000
 14.28740000	15.98400000	22.96100000
 14.13180000	16.55770000	26.55200000
 14.43510000	16.28020000	30.43200000
 14.77340000	16.48920000	52.58730000
 14.45940000	16.42790000	56.42440000
 14.46110000	16.45130000	59.85110000
 14.98660000	16.11190000	63.64490000
 14.37310000	19.93730000	19.61150000
 13.96290000	19.70400000	22.96450000
 14.21130000	19.50320000	26.41180000
 14.68410000	19.84660000	30.48360000
 14.54180000	19.74240000	52.58140000
 14.50160000	19.90010000	56.40020000
 14.65100000	20.01710000	59.64190000
 14.19730000	20.14830000	63.91000000
 17.66460000	1.34605000	19.35430000
 17.90650000	1.24368000	22.93440000
 18.01210000	1.53898000	26.61860000
 18.28900000	1.55541000	29.97890000
 18.25680000	2.25061000	52.70690000
 18.23990000	1.60314000	56.34190000
 18.55690000	1.57318000	59.58210000
 18.05610000	1.35644000	63.47710000
 18.27880000	5.19463000	19.48870000
 18.23060000	5.57445000	23.23380000
 17.48360000	5.20386000	26.69780000
 17.71260000	5.02429000	30.39640000
 18.17780000	5.38246000	52.62070000
 18.08640000	5.24020000	56.14180000
 17.75360000	5.42762000	59.87030000
 18.37090000	5.65808000	64.00410000
 18.00120000	8.89311000	19.35530000
 18.36570000	8.62334000	23.14500000
 18.66940000	8.65605000	26.93290000
 18.11040000	8.69387000	30.13770000
 18.23540000	8.88857000	52.18870000
 18.04030000	9.15539000	56.15520000
 18.19660000	8.70225000	59.91950000
 18.37210000	9.00087000	63.61260000
 17.86670000	12.28080000	19.62670000
 18.05090000	12.40740000	23.15720000
 18.58310000	12.49220000	26.81620000
 17.92140000	12.53350000	30.26070000
 18.39500000	12.91850000	52.17540000
 18.16160000	13.03200000	56.15690000
 18.07550000	11.98970000	60.07060000
 17.94440000	12.59560000	63.65870000
 18.13350000	16.31670000	19.30710000
 18.37340000	15.83010000	22.79660000
 18.07670000	15.95180000	26.62570000
 18.22120000	15.97000000	30.64480000
 18.30670000	16.26290000	52.72720000
 18.26510000	16.37590000	56.60470000
 18.05460000	16.27030000	60.03550000
 18.05360000	16.10190000	62.76640000
 17.71700000	19.87460000	19.38500000
 18.33130000	19.78430000	22.77300000
 17.91190000	19.87420000	26.66400000
 17.86120000	19.73320000	29.91470000
 17.99910000	19.76140000	52.86250000
 18.21320000	19.71130000	56.27300000
 17.99320000	19.83120000	59.81670000
 18.19540000	19.94230000	63.82080000
 1.36397000	-0.29703400	0.68716200
 1.42303000	-0.48045100	4.82006000
 1.43025000	21.84570000	19.27170000
 1.00043000	21.88820000	23.09260000
 1.37319000	-0.38095200	26.97150000
 1.26234000	-0.14518800	30.14540000
 1.20815000	-0.25630900	41.46260000
 1.50489000	-0.05565250	48.96260000
 1.35560000	-0.02727750	52.80960000
 1.63028000	0.12046300	56.14770000
 1.83799000	22.06500000	60.22100000
 1.20152000	-0.19588900	63.62960000
 1.26083000	3.96706000	19.23580000
 1.34226000	2.85360000	22.84970000
 1.37465000	3.22019000	26.31840000
 1.44217000	3.41020000	30.55010000
 1.33869000	3.64018000	52.14840000
 1.65397000	3.81694000	56.36310000
 1.62737000	3.53374000	60.13870000
 1.32551000	3.68546000	63.59550000
 1.29182000	6.83768000	19.26760000
 1.33850000	6.77103000	22.94530000
 1.42815000	6.65520000	26.76290000
 1.26374000	6.75350000	30.31840000
 1.38741000	7.04117000	52.60800000
 1.48193000	7.04886000	56.29340000
 1.49752000	7.43760000	59.74840000
 1.47936000	6.89403000	63.49680000
 1.39655000	10.95140000	18.89280000
 1.59658000	10.27990000	22.91240000
 1.21213000	10.35450000	26.69460000
 1.37225000	10.61510000	30.71040000
 1.77534000	10.36100000	52.49090000
 1.50890000	10.76630000	56.21740000
 1.69252000	10.94410000	59.95140000
 1.47723000	10.99400000	63.77220000
 1.44822000	14.07710000	19.35510000
 1.44109000	14.49850000	23.25260000
 1.05370000	14.30830000	26.84010000
 1.38825000	14.51560000	30.97920000
 1.82532000	14.54800000	52.44600000
 1.76693000	14.81960000	56.90760000
 1.37968000	14.35260000	59.98720000
 1.45716000	14.45650000	64.09470000
 1.07183000	18.04790000	19.00060000
 1.27738000	17.98940000	22.82580000
 1.37888000	18.06040000	27.29330000
 1.60081000	18.38730000	30.74710000
 1.23671000	18.49730000	52.33930000
 1.82941000	18.27400000	56.10630000
 1.49992000	18.54460000	60.05830000
 1.32151000	17.89870000	64.27550000
 5.25031000	-0.22746300	0.97230700
 5.22863000	-0.70998600	4.16484000
 4.91076000	-0.40736300	8.20587000
 5.29135000	-0.17800400	11.94480000
 4.77842000	-0.40171500	15.78280000
 5.08497000	21.66130000	19.44280000
 5.03057000	21.46370000	23.55360000
 4.82050000	21.56520000	26.52420000
 5.26945000	-0.17829200	30.37660000
 5.60875000	21.77670000	52.72480000
 4.93485000	0.11288350	56.15040000
 5.25426000	-0.06621320	59.98450000
 5.50280000	0.17808100	63.65110000
 5.14299000	3.48720000	19.44270000
 4.87619000	3.13906000	23.11640000
 5.18818000	3.40620000	26.49970000
 4.61506000	3.49604000	30.38260000
 5.76817000	3.49680000	52.83040000
 5.28028000	3.51029000	56.40080000
 5.06285000	3.24467000	60.29250000
 5.09425000	3.31795000	63.63840000
 5.16274000	7.18406000	19.27050000
 4.99052000	6.84030000	22.89650000
 5.07839000	7.48539000	26.95650000
 4.98003000	6.72747000	30.79480000
 5.75510000	7.14160000	52.48050000
 5.34725000	6.91042000	56.40310000
 5.51790000	7.26153000	59.90270000
 5.34810000	7.07940000	64.02680000
 5.30867000	10.53270000	18.85230000
 4.80882000	10.77600000	22.95300000
 5.16611000	10.37650000	26.70710000
 5.15869000	10.89070000	30.61600000
 5.29619000	10.72470000	52.80270000
 5.05870000	10.56980000	55.94990000
 5.05415000	10.87340000	59.92910000
 5.09695000	10.80860000	63.55340000
 5.10114000	14.72380000	19.15810000
 4.93086000	14.27970000	23.19720000
 4.71952000	14.23890000	26.96610000
 4.92626000	14.03500000	30.25150000
 5.66478000	14.55740000	52.38060000
 5.23215000	15.13710000	56.44380000
 5.44787000	14.58590000	59.82750000
 5.13043000	14.71140000	63.46790000
 5.27021000	17.40150000	19.34560000
 4.73263000	18.08470000	22.97110000
 5.12402000	17.91570000	26.53300000
 5.10896000	18.29610000	30.29660000
 5.43321000	18.43690000	52.68030000
 5.22202000	18.07700000	56.08190000
 5.07028000	18.29970000	59.89430000
 5.42580000	17.64920000	63.57510000
 8.99009000	-0.34966600	0.98426100
 8.92799000	-0.51575000	8.37221000
 9.01400000	-0.13013000	11.89580000
 8.66808000	-0.10114500	15.64660000
 8.68827000	21.68400000	19.06760000
 8.83938000	-0.27404600	23.08470000
 8.27078000	21.90100000	26.78580000
 8.85285000	21.41570000	30.52140000
 9.09074000	21.67200000	52.88920000
 9.11684000	21.64240000	56.46690000
 8.82173000	-0.26110400	60.09560000
 9.00019000	21.72610000	63.82540000
 8.71080000	3.16715000	19.48290000
 8.59743000	3.15530000	22.84920000
 8.64844000	3.31283000	26.88030000
 8.66246000	3.43670000	30.47730000
 9.15337000	3.28125000	52.56070000
 9.26274000	3.81547000	55.84050000
 9.10181000	3.58502000	59.61710000
 9.49580000	3.33235000	64.23480000
 8.73625000	6.75444000	19.23170000
 8.57606000	7.06210000	22.58130000
 8.64730000	6.98537000	26.73480000
 8.94347000	6.97387000	30.25460000
 9.46083000	6.80802000	52.63140000
 8.98442000	6.97294000	56.07570000
 8.75158000	7.02092000	60.02520000
 9.19010000	7.17319000	63.40160000
 8.83948000	11.01140000	18.96950000
 8.65379000	10.60160000	23.32790000
 8.63497000	11.06150000	26.72450000
 9.01613000	10.87060000	30.11530000
 9.27125000	11.01430000	52.33700000
 8.95158000	10.64050000	56.29820000
 8.77614000	10.92860000	59.89430000
 8.85308000	11.00380000	63.84480000
 8.67601000	14.40280000	19.22230000
 8.95883000	14.18010000	23.43230000
 8.74315000	14.85140000	26.52250000
 8.97454000	14.66990000	30.41220000
 8.86750000	14.11710000	53.00280000
 8.78076000	14.52850000	56.21300000
 8.92937000	14.58090000	60.15870000
 9.42037000	14.38110000	63.00840000
 9.27830000	18.07550000	18.98990000
 8.59627000	18.21120000	23.00140000
 8.65954000	18.43120000	26.70260000
 8.54999000	18.19950000	29.97270000
 9.04704000	18.04430000	52.44000000
 9.28227000	18.42760000	56.23610000
 9.23149000	18.37750000	59.82450000
 8.71691000	18.09890000	63.39900000
 12.71500000	-0.09325830	8.27743000
 12.73300000	-0.31785900	12.02170000