Cl
  1.000000
35.55065700	0.00000000	0.00000000
0.00000000	35.55065700	0.00000000
0.00000000	0.00000000	35.55065700
Cl Na 
864 864 
Dir
 0.97815915	0.66660372	0.62109120
 0.00652700	0.36046029	0.62496455
 0.11780514	0.80277842	0.60479896
 0.69813901	0.50168131	0.85791665
 0.46621361	0.89881603	0.28785122
 0.91001132	0.71654092	0.41013589
 0.30353307	0.34465749	0.96579370
 0.78343982	0.23250232	0.36363604
 0.67261205	0.55001516	0.52608874
 0.07356629	0.37074140	0.29166269
 0.87855762	0.40172816	0.98390869
 0.18963616	0.80433958	0.88723819
 0.64875595	0.62882102	0.60173291
 0.11138950	0.00535228	0.88347736
 0.85233869	0.10135678	0.47566491
 0.37036166	0.35183879	0.53059217
 0.20329920	0.21371448	0.72875166
 0.88772482	0.70810225	0.67868789
 0.97507060	0.47636814	0.27118262
 0.34422149	0.66113266	0.90007621
 0.45769338	0.33855634	0.45209292
 0.71582082	0.23033527	0.97771190
 0.00305883	0.93143428	0.25402034
 0.76582552	0.73946314	0.96127057
 0.10795159	0.07877942	0.02497346
 0.32944821	0.51789761	0.91526580
 0.16466925	0.54870717	0.39274380
 0.82978214	0.91155279	0.60749652
 0.72425104	0.29797199	0.80094723
 0.06424129	0.35139435	0.55614444
 0.17966982	0.84455262	0.40825688
 0.50781903	0.44816331	0.38914049
 0.37890158	0.45944299	0.82289901
 0.26914243	0.30833186	0.56543541
 0.98083421	0.70871265	0.70812194
 0.25935330	0.36060375	0.08180805
 0.95254218	0.03561847	0.56394458
 0.01791868	0.64484323	0.04889474
 0.12179466	0.55232454	0.55539059
 0.56520475	0.92685208	0.78509380
 0.51857270	0.46868895	0.83695782
 0.79534959	0.74524081	0.42995830
 0.54121082	0.11191889	0.52518017
 0.13926409	0.34161957	0.07017536
 0.16057453	0.87780376	0.72844787
 0.81479789	0.78738630	0.03866623
 0.06735684	0.33732992	0.18159018
 0.21999734	0.92269745	0.91941762
 0.40197007	0.63740876	0.59211565
 0.40560151	0.32430343	0.21482838
 0.88430434	0.99149786	0.67635319
 0.99034739	0.87196421	0.59857685
 0.79650568	0.59654032	0.61125453
 0.20740236	0.32483788	0.00372679
 0.58641392	0.32024725	0.29591015
 0.25926554	0.54238942	0.86494605
 0.24531249	0.93533294	0.16571115
 0.44483848	0.08056138	0.02465544
 0.37276105	0.47426972	0.61156677
 0.75144604	0.85748065	0.89641383
 0.15681792	0.09491808	0.91398312
 0.70311219	0.73942657	0.22691452
 0.28380910	0.07297615	0.10206900
 0.59145181	0.41704715	0.68311256
 0.14066632	0.14115210	0.55937645
 0.00695877	0.07533194	0.16769676
 0.92151885	0.51162487	0.46227557
 0.44000594	0.90189333	0.52549522
 0.09711157	0.34615676	0.79520332
 0.66523666	0.82918581	0.88517071
 0.84170879	0.68820670	0.48656767
 0.05724592	0.14804734	0.62689700
 0.23233045	0.08658209	0.97330973
 0.66138582	0.05666506	0.66655590
 0.86661128	0.90091445	0.27298765
 0.23793682	0.23985380	0.84570871
 0.13340232	0.16218153	0.78562544
 0.40126966	0.69304487	0.16225636
 0.56956473	0.26348318	0.51333792
 0.65942805	0.81603275	0.19623970
 0.57064488	0.54050479	0.17247192
 0.86431034	0.48359444	0.55658888
 0.21638363	0.61161177	0.93036819
 0.53873267	0.65899205	0.17635117
 0.89770775	0.12817935	0.22646473
 0.21620670	0.73953909	0.62359467
 0.82232799	0.08157515	0.76401683
 0.77248925	0.29828141	0.91509140
 0.55446233	0.15798133	0.37275542
 0.71799799	0.87288121	0.51748411
 0.68610829	0.31783098	0.38247676
 0.21163069	0.11514471	0.51156299
 0.12999057	0.53047684	0.07945732
 0.29222245	0.68221806	0.23405700
 0.29326603	0.88136769	0.02694597
 0.29075412	0.32963948	0.85260029
 0.18672988	0.84716016	0.99749494
 0.14428369	0.15686264	0.66519728
 0.63398267	0.24000541	0.34048316
 0.62931609	0.08251774	0.39434152
 0.62121778	0.14356781	0.04789729
 0.41841984	0.16667400	0.63261560
 0.31929649	0.92114755	0.39597300
 0.34013437	0.99424887	0.93504321
 0.09528038	0.16800449	0.92893643
 0.36464024	0.74115650	0.30078769
 0.06527249	0.00158293	0.40632724
 0.25424509	0.94491363	0.35166720
 0.46051470	0.34414836	0.55353689
 0.50493864	0.62206727	0.79416536
 0.35750113	0.87317094	0.09500303
 0.56759289	0.77862978	0.25021479
 0.26022051	0.00105043	0.86649033
 0.08117234	0.10083864	0.83942191
 0.10080798	0.26228630	0.62062145
 0.61999980	0.96616781	0.59474288
 0.81039854	0.78209807	0.16018748
 0.07115902	0.64132149	0.72492613
 0.00361850	0.18003381	0.94701205
 0.29792417	0.51461216	0.50717207
 0.46018278	0.26744288	0.88239721
 0.11732188	0.87644514	0.14629322
 0.88527479	0.88044788	0.55573939
 0.22447237	0.74736454	0.41810761
 0.42814399	0.84982397	0.02760318
 0.43421139	0.87971090	0.18052494
 0.51725346	0.50734084	0.50080932
 0.61482128	0.65658422	0.70720776
 0.01809879	0.39267348	0.44993825
 0.37192281	0.92771564	0.25737612
 0.46815169	0.69335991	0.88915658
 0.61292820	0.96727046	0.69078893
 0.22486589	0.86460569	0.09072631
 0.41213866	0.73432680	0.65637606
 0.89303836	0.05939665	0.10913835
 0.42659409	0.78842145	0.11062187
 0.16625038	0.48599384	0.83201558
 0.97216207	0.59856279	0.72145503
 0.28350250	0.81663190	0.67010014
 0.18413190	0.95874460	0.78084353
 0.84920795	0.14215490	0.09238170
 0.55224297	0.05782566	0.71944100
 0.77443858	0.31933869	0.33654231
 0.19781604	0.85162984	0.26939418
 0.86088706	0.14407920	0.69304205
 0.86272950	0.89504114	0.17910415
 0.55426543	0.72750555	0.64818212
 0.57315397	0.45206479	0.95702311
 0.79557462	0.49720038	0.18819231
 0.27077053	0.15062929	0.71692910
 0.43812693	0.16839633	0.89171630
 0.44769075	0.43014958	0.80030308
 0.20787211	0.32522887	0.36121133
 0.30519268	0.18964291	0.51199054
 0.58791319	0.48973498	0.43896798
 0.85152014	0.01414123	0.02911704
 0.39432183	0.78365923	0.23406347
 0.44354174	0.74829842	0.54351739
 0.08523893	0.27158486	0.08524203
 0.56154800	0.20232960	0.25962699
 0.36719716	0.27557269	0.91227851
 0.69170312	0.91557803	0.11759192
 0.13240459	0.57177566	0.73713407
 0.51269377	0.10959235	0.64561958
 0.54753982	0.84992242	0.84152595
 0.94155786	0.72297680	0.03054571
 0.27475189	0.70544126	0.92466366
 0.92834010	0.60216047	0.08131439
 0.13538372	0.72620037	0.83918563
 0.41783476	0.85091537	0.62080148
 0.68081162	0.78920343	0.10095847
 0.35087678	0.30452321	0.34116107
 0.84860880	0.60602819	0.69509546
 0.31794912	0.22606446	0.96254200
 0.85600951	0.15922800	0.40037798
 0.39106170	0.12111703	0.10676905
 0.12556899	0.44318731	0.57745206
 0.54334580	0.36372605	0.86015570
 0.45746835	0.44889748	0.20236420
 0.25445184	0.62994899	0.49708505
 0.58678804	0.00428085	0.35134091
 0.60706896	0.90320132	0.04058519
 0.97786380	0.01311399	0.46473122
 0.03761309	0.52699449	0.89036049
 0.53203799	0.81044354	0.52273578
 0.63525128	0.08860990	0.22789846
 0.07867168	0.02184879	0.30785648
 0.16230052	0.78588985	0.14948838
 0.76726009	0.94835098	0.86804585
 0.73990195	0.03200588	0.20342465
 0.36732936	0.00757426	0.34716940
 0.05270789	0.20255041	0.83996198
 0.75682709	0.50494989	0.57405410
 0.16598090	0.43300747	0.28348281
 0.71577019	0.16238322	0.63133293
 0.90363451	0.54433875	0.64152120
 0.87220049	0.83425464	0.85103351
 0.13960980	0.03701563	0.78918936
 0.83516882	0.82365568	0.68724469
 0.65124536	0.43767687	0.49857026
 0.38599568	0.07497892	0.88216936
 0.31146823	0.84096337	0.20410031
 0.40742426	0.19804332	0.01212636
 0.61861867	0.43139850	0.88209623
 0.09016486	0.93846931	0.75657393
 0.57096836	0.29983413	0.96059267
 0.65595413	0.91369902	0.42177561
 0.06710706	0.48812038	0.35995397
 0.77280148	0.78311071	0.56978413
 0.08405639	0.27823790	0.38839508
 0.91429816	0.10400596	0.96521143
 0.51262626	0.67715768	0.57319054
 0.84242889	0.05665943	0.24242815
 0.73260813	0.98417029	0.62585623
 0.98309014	0.15739344	0.24709220
 0.77500960	0.41111758	0.17403982
 0.47458758	0.02921015	0.33288837
 0.02643875	0.73872897	0.44676812
 0.05553146	0.11442320	0.72382067
 0.12914023	0.25970041	0.53418142
 0.07511085	0.00167821	0.20524375
 0.49386430	0.55586034	0.39613614
 0.47396030	0.94933831	0.99595910
 0.57965174	0.42150276	0.32519793
 0.87129474	0.73726346	0.55813597
 0.63380545	0.12030861	0.57477420
 0.41567446	0.05357144	0.26135607
 0.50109061	0.72029331	0.11245699
 0.92234584	0.17698914	0.80418768
 0.05522655	0.84312930	0.30585089
 0.97170639	0.33362534	0.12859172
 0.72450701	0.85091256	0.63817668
 0.49507665	0.81969794	0.63842703
 0.21771440	0.20870641	0.97121132
 0.49601053	0.25136160	0.70663955
 0.89173599	0.62119809	0.55526401
 0.68823764	0.67327871	0.50434230
 0.20546287	0.94020486	0.55919642
 0.70628513	0.38253021	0.66718599
 0.53530376	0.27121637	0.37581584
 0.67811969	0.98101705	0.92684083
 0.10765568	0.28982306	0.97208613
 0.42101332	0.67349811	0.46736127
 0.36982439	0.73868115	0.40469857
 0.25798258	0.45851474	0.62280706
 0.71176463	0.51033094	0.94922579
 0.82155164	0.60748245	0.22113066
 0.04184761	0.54502791	0.43336752
 0.85950874	0.42791052	0.72682483
 0.05240269	0.87854918	0.03136285
 0.19521637	0.06710256	0.30231509
 0.45533055	0.33798532	0.78833425
 0.11134506	0.09218508	0.23815172
 0.58063625	0.75930806	0.88926909
 0.58338163	0.65139444	0.85494905
 0.78170990	0.69781834	0.84608002
 0.16253652	0.46487749	0.45083556
 0.62584498	0.68706467	0.28359814
 0.44857962	0.92569317	0.41225399
 0.02319006	0.20261426	0.38687331
 0.42588243	0.17706649	0.21321153
 0.73544071	0.23733626	0.12454397
 0.18412178	0.28233234	0.77233173
 0.84444291	0.32396307	0.09151336
 0.12062815	0.07545908	0.39876901
 0.91373840	0.94488269	0.07211653
 0.85982941	0.79098680	0.30222508
 0.32768171	0.65370101	0.40395316
 0.91918415	0.81606650	0.73367421
 0.54193655	0.93142865	0.43041399
 0.61541198	0.40658602	0.22005023
 0.94413446	0.45541212	0.39030503
 0.78266628	0.82144475	0.80145637
 0.79596280	0.14130963	0.18912956
 0.81559113	0.23025369	0.04206561
 0.25969394	0.41756753	0.25955442
 0.21880637	0.20380271	0.25607572
 0.66363613	0.89810718	0.29676526
 0.97264027	0.83872994	0.10373761
 0.35428600	0.20037408	0.38143881
 0.80817917	0.88246190	0.48878141
 0.24356484	0.43923802	0.44861056
 0.10376208	0.91697041	0.51074162
 0.86817243	0.23989965	0.33567875
 0.72703580	0.88619460	0.97931525
 0.51187522	0.41104445	0.49902313
 0.03360304	0.88449562	0.42905255
 0.81930133	0.29347981	0.43338159
 0.45126874	0.53673270	0.61746820
 0.68151484	0.01402615	0.03972754
 0.10104483	0.61369050	0.28837161
 0.40231325	0.25397590	0.70008834
 0.30258513	0.21179665	0.80062938
 0.07173145	0.50073337	0.50279522
 0.45519272	0.25652438	0.59761484
 0.30052328	0.14531940	0.02579331
 0.82278087	0.29628145	0.24926122
 0.88448437	0.12754195	0.31085502
 0.96031701	0.67169505	0.95079538
 0.59952761	0.87680237	0.60702676
 0.56307258	0.26128097	0.06149225
 0.34250563	0.28825909	0.05008346
 0.82065151	0.97989189	0.16079450
 0.41528628	0.94736085	0.91105772
 0.53588321	0.90906901	0.52798462
 0.92618824	0.92879860	0.49544514
 0.60120127	0.30007603	0.42672067
 0.41242839	0.99565531	0.57980083
 0.66694408	0.52568368	0.42317081
 0.08499646	0.62373532	0.38083685
 0.27793917	0.80432551	0.89536462
 0.27634314	0.45164285	0.14226516
 0.87964902	0.20360665	0.94369847
 0.47927104	0.65961651	0.38600694
 0.43413826	0.55197574	0.89715643
 0.05274052	0.90618017	0.19343609
 0.39224311	0.97644048	0.08373826
 0.56463374	0.07491395	0.44416901
 0.94392631	0.10661210	0.66514665
 0.29598891	0.93796299	0.55814159
 0.35807215	0.01557456	0.81549268
 0.34765321	0.77658763	0.55082527
 0.06925470	0.54999266	0.64121460
 0.85869300	0.89594126	0.96108492
 0.71662812	0.20812302	0.51835611
 0.96622688	0.82034209	0.00396893
 0.80775723	0.07146760	0.66772888
 0.56186304	0.69681414	0.39124735
 0.67067116	0.05740597	0.51814796
 0.35388376	0.27700164	0.58297939
 0.46236840	0.60439390	0.50015391
 0.35648849	0.85579573	0.34352671
 0.50519742	0.97602980	0.63109102
 0.10549397	0.34807515	0.45305774
 0.63337790	0.28701298	0.20480409
 0.10879237	0.46173550	0.01929540
 0.44396086	0.87329752	0.86666473
 0.21475947	0.32520918	0.45992681
 0.03169505	0.81818461	0.86013320
 0.48572661	0.36560225	0.93495320
 0.72578407	0.10882584	0.72317652
 0.13001307	0.74396376	0.27337864
 0.25648078	0.74547709	0.78204182
 0.94188134	0.88704128	0.30807026
 0.74673726	0.48986156	0.49008940
 0.88974166	0.51582170	0.76449502
 0.52494389	0.04612629	0.81847996
 0.35871349	0.35455604	0.76304639
 0.77043022	0.64663785	0.73685559
 0.60018863	0.81314954	0.76903784
 0.13367629	0.57813841	0.84103932
 0.69748079	0.65675580	0.15681904
 0.05994207	0.64480666	0.89033236
 0.81357710	0.34188398	0.72031300
 0.48994595	0.89447293	0.72699361
 0.55349189	0.91288047	0.29647272
 0.51570637	0.62894478	0.68332071
 0.10251569	0.91775520	0.64193751
 0.02638219	0.98222659	0.87174761
 0.94122875	0.15634986	0.13425181
 0.90113104	0.70856919	0.19316155
 0.31846388	0.20009138	0.62250046
 0.19625629	0.98458379	0.68194240
 0.11834015	0.65029460	0.11711654
 0.28187384	0.91126025	0.68394799
 0.07053091	0.24895011	0.72347468
 0.45318150	0.42239726	0.30798587
 0.45234889	0.04340820	0.70957902
 0.45749929	0.28494832	0.12095726
 0.91291704	0.29789886	0.53013930
 0.96590903	0.65471083	0.34817922
 0.46993225	0.02162261	0.45482986
 0.70540751	0.96840687	0.54233598
 0.94208387	0.50184165	0.84845128
 0.58139855	0.24460786	0.89218887
 0.63746221	0.59586804	0.94291930
 0.37601837	0.23608622	0.11226178
 0.60854010	0.44803392	0.08474780
 0.46619955	0.22501188	0.30195223
 0.28015798	0.28647854	0.70406295
 0.18208440	0.16974651	0.35501454
 0.44246159	0.47981392	0.70612198
 0.41505563	0.53180453	0.24099808
 0.31470586	0.57148874	0.79981083
 0.94673638	0.99242612	0.21410153
 0.89679638	0.32869154	0.66130706
 0.76592397	0.17408286	0.92616011
 0.75851201	0.28742648	0.66285414
 0.91475667	0.38342752	0.49983887
 0.45486642	0.57211883	0.03811125
 0.65233676	0.70511778	0.92366508
 0.15743844	0.25686699	0.12472681
 0.29113386	0.97844044	0.27993773
 0.24635269	0.17637649	0.43728025
 0.65070247	0.53599854	0.06619062
 0.91681851	0.27268920	0.73769383
 0.47095333	0.78067475	0.98867654
 0.57976145	0.79630878	0.10016496
 0.65541687	0.22127158	0.68758786
 0.00742045	0.57408785	0.56951972
 0.34426650	0.79726235	0.82661202
 0.27003693	0.39198714	0.36465993
 0.55493771	0.18999255	0.65595976
 0.64950137	0.75727153	0.56931719
 0.27788319	0.01272064	0.68970034
 0.69893787	0.87038618	0.78298132
 0.62580560	0.22516012	0.00241868
 0.17000361	0.94145941	0.99014487
 0.09718358	0.84274674	0.79974613
 0.02942055	0.21592878	0.03108353
 0.63240464	0.77725147	0.67890167
 0.41688963	0.36716059	0.01264053
 0.01993603	0.38956805	0.84654133
 0.24942831	0.85376482	0.78964505
 0.98971449	0.70870140	0.27741569
 0.24705620	0.77095341	0.04079981
 0.48209236	0.23174031	0.20065593
 0.75784536	0.51552634	0.04823343
 0.50747023	0.01330935	0.09334427
 0.07453702	0.72851819	0.20786874
 0.28027359	0.59073733	0.22062856
 0.19587121	0.64424408	0.38332344
 0.80645768	0.50251111	0.85557914
 0.78998822	0.84159627	0.29865553
 0.81487947	0.11893198	0.99590847
 0.67878071	0.46731064	0.16138999
 0.28530556	0.41473496	0.84901948
 0.22517559	0.66532386	0.83718004
 0.49504852	0.19677527	0.54244849
 0.99544997	0.22421639	0.59054324
 0.63129917	0.21405174	0.59072327
 0.78106293	0.53615044	0.39952567
 0.98084546	0.61957506	0.45894511
 0.81399622	0.16861433	0.84047393
 0.05394556	0.90200303	0.94029206
 0.01143920	0.28434918	0.50689922
 0.66232251	0.69585775	0.38172291
 0.99579033	0.38085935	0.23851374
 0.29599735	0.44694252	0.71901907
 0.19723433	0.46121511	0.06718751
 0.58791601	0.14429185	0.71944382
 0.85855517	0.86651283	0.07133258
 0.79332993	0.72390787	0.63113884
 0.84671573	0.21969018	0.25820930
 0.27939709	0.96761645	0.02271125
 0.42205690	0.11664482	0.51660087
 0.25278014	0.00937414	0.45291709
 0.10969615	0.81498073	0.05797783
 0.88042819	0.68549789	0.32289699
 0.56002904	0.70470991	0.99643919
 0.09418054	0.34278692	0.71990232
 0.22656065	0.29910840	0.92082125
 0.40750021	0.66423527	0.24103690
 0.95052816	0.88946037	0.18270521
 0.37915755	0.10049941	0.36361916
 0.65326782	0.43993280	0.76127989
 0.94212887	0.04730377	0.76888313
 0.17183818	0.77850039	0.72600628
 0.08815674	0.20818884	0.28865008
 0.00047660	0.43965714	0.93301512
 0.88804830	0.31497590	0.91536706
 0.58126071	0.36316910	0.55115438
 0.20652868	0.21469364	0.57073208
 0.96975143	0.28217482	0.98891001
 0.78192930	0.10694964	0.55125002
 0.88951100	0.48340598	0.23719843
 0.15990366	0.98235035	0.41691776
 0.95094446	0.98586928	0.95955753
 0.18768570	0.35899196	0.16154554
 0.38849915	0.68192833	0.99122501
 0.45261611	0.13545545	0.40436665
 0.84045987	0.80372074	0.50864321
 0.39607145	0.82386945	0.47892786
 0.92204204	0.79361685	0.62861568
 0.59934477	0.23914608	0.78720065
 0.60797752	0.18167653	0.47372684
 0.51592296	0.31844419	0.23577342
 0.07166450	0.10924721	0.33825254
 0.59149681	0.01758074	0.01685932
 0.24668349	0.84063708	0.59205376
 0.38926426	0.54875217	0.53102817
 0.00145267	0.15358366	0.78436526
 0.51824359	0.83208590	0.39110389
 0.37191156	0.38252458	0.39641181
 0.22286536	0.57082209	0.60200013
 0.79349027	0.48863795	0.64802179
 0.58528314	0.80986971	0.98870748
 0.27755352	0.24018347	0.07018520
 0.51069099	0.67011421	0.28314526
 0.76489445	0.97605792	0.46693371
 0.51832235	0.58401734	0.56196431
 0.03554871	0.38653013	0.07819659
 0.94993464	0.14016816	0.56162957
 0.70953401	0.55034708	0.78754101
 0.11409381	0.19979997	0.18952336
 0.17576947	0.66850524	0.67211980
 0.21404415	0.56510630	0.02692631
 0.85822606	0.60437702	0.82280618
 0.33963367	0.42298797	0.93738353
 0.09184190	0.45286365	0.79210070
 0.35931545	0.54329798	0.06953430
 0.63014589	0.60361473	0.24438058
 0.20159431	0.87545781	0.49271945
 0.61332763	0.06142165	0.13085103
 0.83732631	0.99902234	0.51584420
 0.68673837	0.15015419	0.18521936
 0.13248194	0.17707127	0.01546258
 0.27376231	0.47128244	0.01812391
 0.77512211	0.15780524	0.31369041
 0.47759456	0.81382463	0.76933882
 0.71242847	0.57967706	0.64154933
 0.93120924	0.32323735	0.32904315
 0.57633816	0.38421513	0.42483604
 0.07190106	0.08958316	0.50858133
 0.55266771	0.55548060	0.69000414
 0.59126053	0.43018615	0.58542098
 0.77848633	0.84808279	0.18815686
 0.25913502	0.62114183	0.71210218
 0.13915299	0.78741162	0.51945032
 0.20029616	0.55247362	0.50338592
 0.31168482	0.57977832	0.98765827
 0.62785620	0.21632849	0.13893414
 0.68485936	0.02744295	0.35705107
 0.97112975	0.69202098	0.81232255
 0.17199851	0.35509330	0.56964630
 0.08650192	0.43980622	0.70337660
 0.72007672	0.39697157	0.89474578
 0.92665237	0.36667396	0.81955730
 0.26643559	0.24621261	0.35585559
 0.92623325	0.20761642	0.44413526
 0.00488286	0.96182471	0.36172609
 0.81569239	0.27503796	0.84456387
 0.69758768	0.40855223	0.58984283
 0.18305963	0.98410560	0.29358670
 0.94255081	0.07121078	0.85863393
 0.70497151	0.79392064	0.30525456
 0.72229327	0.33037083	0.15805981
 0.69240072	0.61994917	0.42311455
 0.07567286	0.59729136	0.17655117
 0.21720105	0.12992784	0.85631893
 0.47866345	0.97759657	0.19442679
 0.33701487	0.41457744	0.08022552
 0.58428457	0.50563623	0.28138440
 0.09668485	0.61473408	0.47136964
 0.46836828	0.95831142	0.79695856
 0.00996570	0.19170504	0.50321715
 0.53329254	0.71990794	0.75633484
 0.68058096	0.37083985	0.28216357
 0.82798752	0.08378889	0.88433247
 0.50456452	0.44796360	0.61461312
 0.03774895	0.08457678	0.94145659
 0.36172046	0.16785316	0.71431874
 0.87821444	0.52195379	0.00846207
 0.30985644	0.98070763	0.12557040
 0.64761111	0.15324583	0.90367951
 0.74800025	0.59052918	0.50716926
 0.40015576	0.38144725	0.64508513
 0.92411233	0.61039098	0.23561421
 0.66734351	0.65470521	0.78524570
 0.11648589	0.77665795	0.36879488
 0.59792145	0.53595635	0.86805711
 0.12640217	0.68894649	0.95362515
 0.88606240	0.54293793	0.15748598
 0.46980286	0.21116769	0.07182596
 0.33937207	0.33197418	0.16042854
 0.25821042	0.57359278	0.38204639
 0.48769282	0.48000239	0.04838279
 0.42369400	0.67205791	0.81696663
 0.06343990	0.73262219	0.63475058
 0.16171122	0.69086207	0.74195536
 0.76958072	0.51263470	0.73798075
 0.33562249	0.68208586	0.53554004
 0.90233777	0.94093902	0.76619963
 0.02810446	0.97864578	0.57795838
 0.09366803	0.00193930	0.99012236
 0.80743938	0.33479269	0.02262358
 0.95870241	0.22279335	0.87768843
 0.69269607	0.67873289	0.01911084
 0.72697110	0.25665996	0.24405400
 0.98371742	0.68161610	0.14937474
 0.36571477	0.61716160	0.10773556
 0.00269243	0.29133639	0.80635642
 0.83850491	0.98294669	0.39156801
 0.29263032	0.78167895	0.14901975
 0.94140315	0.81188093	0.47536675
 0.76491133	0.69103084	0.35685136
 0.79575183	0.31191829	0.55532870
 0.14671347	0.19050619	0.43435485
 0.14372843	0.27631867	0.86564084
 0.89800592	0.29836299	0.43097094
 0.96686259	0.91027011	0.68084256
 0.40191944	0.61841052	0.68127012
 0.67947550	0.78956067	0.98810552
 0.49680658	0.55224859	0.29156986
 0.19949027	0.39521070	0.93590114
 0.38060338	0.46264687	0.14600884
 0.75593541	0.73893150	0.10722249
 0.62288020	0.84304772	0.48265775
 0.97954590	0.06583620	0.28096077
 0.40753396	0.48086594	0.00335206
 0.75449521	0.04449257	0.09748540
 0.99798157	0.22128733	0.12480754
 0.25934120	0.32695599	0.25008877
 0.16556178	0.56909216	0.19720114
 0.83688469	0.52239823	0.49795705
 0.51398488	0.91267513	0.11798994
 0.04123243	0.76046978	0.13944750
 0.73605673	0.65569253	0.24956332
 0.58979783	0.07063555	0.94788123
 0.08526819	0.48874203	0.15563060
 0.98842338	0.78453685	0.33507398
 0.47957764	0.66801017	0.02771226
 0.46427835	0.77182260	0.35167002
 0.32023037	0.10656681	0.92402794
 0.58487527	0.72438043	0.18283938
 0.48086594	0.37397622	0.68925872
 0.20003653	0.66299479	0.23708986
 0.14419987	0.29949095	0.25495225
 0.36074721	0.41396141	0.25568079
 0.01694056	0.10769900	0.05503105
 0.45722644	0.60031521	0.19517867
 0.78458467	0.62970145	0.92363695
 0.15818751	0.45130531	0.18299240
 0.51377673	0.15058766	0.14966503
 0.95545634	0.42508076	0.75902114
 0.49291917	0.73533101	0.45555839
 0.20063399	0.07589508	0.74798900
 0.62987022	0.34687967	0.83154020
 0.87252397	0.22439136	0.14234336
 0.96307082	0.02998735	0.04876788
 0.78462405	0.94746773	0.03837707
 0.33985026	0.52031388	0.69837810
 0.83196495	0.42095425	0.49758856
 0.69840060	0.55153693	0.20130514
 0.95032282	0.89731958	0.85957062
 0.07341862	0.56263096	0.96691323
 0.57423412	0.60664421	0.48130194
 0.92456520	0.55874074	0.35500329
 0.48824415	0.47696447	0.93526262
 0.40912325	0.36631672	0.87832133
 0.10444617	0.68583825	0.53562443
 0.93408683	0.79480389	0.92425579
 0.73229871	0.76559486	0.73046752
 0.20170654	0.67491018	0.02127378
 0.64497543	0.93124300	0.83227999
 0.11679278	0.01065688	0.12065459
 0.17351522	0.49140583	0.69385498
 0.90572167	0.57229885	0.90613235
 0.62167347	0.03083628	0.87811880
 0.73744067	0.41679118	0.79792619
 0.33810065	0.24536734	0.24512768
 0.73713125	0.38817005	0.44605083
 0.97127602	0.79215415	0.22349208
 0.85683368	0.49727352	0.30823341
 0.48557472	0.06665784	0.91206473
 0.00820100	0.79482358	0.54317703
 0.01718207	0.51008903	0.07352101
 0.23423337	0.58438583	0.10272553
 0.07669985	0.80904835	0.45348811
 0.97993408	0.49546202	0.58940402
 0.88977260	0.79486015	0.11115519
 0.94884605	0.18330744	0.32402777
 0.37993391	0.08164884	0.63479840
 0.33401071	0.08322716	0.46282127
 0.54012223	0.36797070	0.04288838
 0.72512585	0.58142949	0.32085483
 0.55260583	0.01845412	0.26420497
 0.31957216	0.04179698	0.52854720
 0.49954070	0.04471704	0.57359560
 0.83292977	0.20574388	0.49656748
 0.94339467	0.69909539	0.51359952
 0.71335391	0.11342153	0.81022132
 0.84997868	0.45421383	0.91936980
 0.44908313	0.53513217	0.13794232
 0.07398204	0.03092601	0.64409781
 0.68940780	0.31358633	0.04562757
 0.17655089	0.05278355	0.61997167
 0.83237844	0.41965751	0.39308979
 0.02389160	0.31342319	0.90788197
 0.20932609	0.02033616	0.17685131
 0.20266996	0.44292853	0.54354552
 0.87747184	0.80374606	0.39963256
 0.22177059	0.02800286	0.54982951
 0.26157857	0.24672428	0.16116327
 0.84247671	0.43614384	0.08058642
 0.19586446	0.14554780	0.06487560
 0.23409188	0.74318740	0.50387818
 0.84545555	0.71479130	0.75531657
 0.03714418	0.80327912	0.66991168
 0.60132785	0.60766248	0.36397077
 0.95502034	0.77614882	0.81838151
 0.77002797	0.08913788	0.42133118
 0.21383459	0.70251023	0.12727922
 0.11431378	0.51927030	0.27407483
 0.42359274	0.43834352	0.44329702
 0.61512788	0.33539184	0.10636625
 0.64242977	0.39762697	0.98179059
 0.28692860	0.36404110	0.64960544
 0.69165249	0.10378205	0.94455358
 0.74078519	0.91493106	0.38052462
 0.01189941	0.40323869	0.35202163
 0.00013062	0.85959031	0.76204219
 0.36148418	0.87976153	0.75453178
 0.36024932	0.25218747	0.46864395
 0.62927108	0.81438440	0.32840181
 0.76230941	0.04696200	0.31383387
 0.59798896	0.31795756	0.73704687
 0.88818894	0.68865114	0.87509214
 0.79426663	0.21358087	0.63673367
 0.32075076	0.16247407	0.17160302
 0.89105246	0.35206101	0.17270567
 0.05722145	0.79777992	0.96180221
 0.45250922	0.31477056	0.33148192
 0.02048030	0.27372181	0.24771666
 0.43711710	0.45497050	0.53445145
 0.51687372	0.85476059	0.94721458
 0.35808059	0.75721246	0.05715647
 0.99598452	0.03159660	0.70078875
 0.82039835	0.39923595	0.86123023
 0.31650611	0.71851838	0.67481454
 0.29024218	0.15956499	0.28173038
 0.75839668	0.45775245	0.35266859
 0.82479208	0.38004924	0.24108078
 0.72372784	0.25213627	0.43430140
 0.20172314	0.51247436	0.94905983
 0.90158391	0.40888696	0.61558357
 0.86443973	0.70045964	0.96583027
 0.55446233	0.53785786	0.00280806
 0.86751422	0.24719909	0.59672316
 0.57343807	0.30634877	0.64381090
 0.85438366	0.65753779	0.06229646
 0.26885411	0.96726765	0.78437933
 0.95947595	0.57542116	0.98554579
 0.12637713	0.70757624	0.45646414
 0.12011649	0.39072696	0.37753452
 0.91141214	0.04138686	0.38320811
 0.68375109	0.32713039	0.51973161
 0.20974296	0.13268953	0.16147128
 0.32727103	0.87818350	0.49294167
 0.99285930	0.29671463	0.37587492
 0.10263664	0.63679555	0.60553593
 0.17582348	0.38996748	0.66951225
 0.64703446	0.52647692	0.71637496
 0.48741435	0.77863260	0.23753176
 0.68893243	0.49137208	0.64614559
 0.87025397	0.89584000	0.40446229
 0.29734753	0.61321512	0.61659902
 0.43585974	0.77457360	0.86578429
 0.72174195	0.39775918	0.08896657
 0.52882286	0.37467663	0.16761744
 0.54099142	0.11706816	0.04099868
 0.47686039	0.06927298	0.20141006
 0.19166650	0.66248003	0.56232436
 0.13263749	0.91437693	0.86985735
 0.18468379	0.04996842	0.04624612
 0.21766321	0.70085063	0.33118094
 0.67442355	0.98739949	0.77632884
 0.26371355	0.09197805	0.37346990
 0.80677554	0.93889687	0.70959027
 0.68800136	0.69511515	0.65934647
 0.87182919	0.12730904	0.59138711
 0.37679192	0.47436255	0.34739443
 0.18740976	0.38269335	0.81458130
 0.14043285	0.91815182	0.33903171
 0.67903387	0.22240377	0.85856361
 0.02794508	0.36785819	0.99342188
 0.77396883	0.81283731	0.38358504
 0.29363733	0.65912144	0.03093895
 0.62146532	0.06445394	0.78375768
 0.31076219	0.34582765	0.45081868
 0.35370374	0.87413013	0.95776572
 0.37695788	0.55411354	0.40652133
 0.02745505	0.60285807	0.81250820
 0.99623758	0.54506448	0.16498767
 0.70713181	0.19420373	0.74639128
 0.02488053	0.95045221	0.11195630
 0.33610912	0.50520023	0.26381313
 0.86435816	0.60289463	0.43038024
 0.71744948	0.61718973	0.87383478
 0.62497861	0.86986298	0.70678582
 0.77111656	0.51197648	0.29228715
 0.10624923	0.41849297	0.91519266
 0.63735813	0.73003153	0.79922293
 0.99796751	0.94912171	0.75762877
 0.44893967	0.37716040	0.09808370
 0.56857740	0.61060757	0.08904477
 0.86564084	0.98161338	0.88966571
 0.35304271	0.05041088	0.00115862
 0.06072349	0.13960445	0.12695799
 0.41688119	0.96286829	0.69019541
 0.47311081	0.21275697	0.44731945
 0.44440248	0.12776698	0.79369842
 0.37038697	0.98666532	0.44770763
 0.78059881	0.55907828	0.98599867
 0.66891029	0.48422453	0.26569073
 0.76916723	0.42853498	0.01133990
 0.18095925	0.29199742	0.65474178
 0.39940472	0.23637201	0.79594873
 0.10664163	0.00755218	0.52638972
 0.75922086	0.60298183	0.10845313
 0.79522301	0.39775074	0.59284700
 0.50351250	0.10878224	0.30150217
 0.86394748	0.00765873	0.59516763
 0.70813601	0.91664411	0.70746654
 0.58366292	0.70094908	0.50057585
 0.62028672	0.97157137	0.10015961
 0.36405516	0.07722389	0.72170819
 0.30854564	0.60331938	0.31147385
 0.67485392	0.43006238	0.37127303
 0.99945391	0.50300056	0.70416421
 0.33923424	0.12242024	0.81352647
 0.72634664	0.94905983	0.20909544
 0.52203818	0.96509891	0.90515909
 0.50568405	0.59604244	0.91902663
 0.68102259	0.14258471	0.42090362
 0.82256428	0.71953945	0.27067658
 0.34564200	0.65267993	0.74846156
 0.57130872	0.87069559	0.18787361
 0.25927622	0.14230483	0.61117015
 0.96797931	0.21891663	0.70894893
 0.94092777	0.24189567	0.22798763
 0.40059176	0.77594348	0.74508047
 0.00539515	0.54999266	0.30941482
 0.79467449	0.98599304	0.79615407
 0.60576659	0.55656919	0.78595454
 0.95717501	0.89920984	0.99443733
 0.29231809	0.81466850	0.40575059
 0.57355340	0.14905716	0.80979377
 0.51244623	0.15624184	0.94761682
 0.46974660	0.26561113	0.96771490
 0.67388629	0.31331630	0.93930755
 0.78065506	0.02459099	0.95011466
 0.94161412	0.16944694	0.03001182
 0.06114655	0.73430993	0.76112237
 0.81935477	0.21022087	0.75788193
 0.67546432	0.15712818	0.31232616
 0.59724354	0.53370885	0.60835163
 0.36656988	0.98828273	0.19259054
 0.62258485	0.68787759	0.07941035
 0.14937530	0.93439062	0.09051928
 0.06715572	0.69866220	0.33870823
 0.41691776	0.59166277	0.34490502
 0.74953327	0.85900242	0.10567006
 0.94859008	0.44987636	0.13243525
 0.10295619	0.72065898	0.06459318
 0.73708343	0.14118614	0.04643262
 0.77318403	0.94877291	0.29799168
 0.22935470	0.51444057	0.77405603
 0.01405122	0.09290546	0.42801460
 0.28589064	0.07858420	0.22729679
 0.71710068	0.76239942	0.48549596
 0.61239657	0.95926499	0.19279025
 0.42947168	0.55979838	0.78181397
 0.30931918	0.91996895	0.87198390
 0.16268926	0.91264137	0.22849986
 0.21783339	0.52512392	0.29290317
 0.34991478	0.76288887	0.93924285
 0.82504805	0.79798808	0.91774114
 0.03980461	0.72539307	0.88995262
 0.82858385	0.58774161	0.31580570
 0.29733628	0.40840877	0.53296343
 0.60569908	0.98242349	0.47161154
 0.64322019	0.78594892	0.41582073
 0.89990181	0.00062287	0.31408140
 0.74316208	0.43774156	0.62511363
 0.50737741	0.60101562	0.15183320
 0.99880287	0.97943339	0.63767036
 0.34965880	0.93240472	0.92339786
 0.22605462	0.38571158	0.41085036
 0.13278320	0.85774506	0.22491146
 0.24644355	0.25623606	0.76939507
 0.86813587	0.36907054	0.05572358
 0.75317878	0.34012593	0.26712024
 0.07801769	0.55365504	0.36815635
 0.62225293	0.31610668	0.99920518
 0.54557080	0.36025776	0.47499826
 0.46644427	0.55739618	0.53822635
 0.14764650	0.52308739	0.01287442