POSCAR file written by Ovito 3.7.5
1
35.5506565066 0.0 0.0
0.0 35.5506565066 0.0
0.0 0.0 35.5506565066
Na Cl 
864 864 
Direct
1.0039434503 5.5961704382e-04 0.9987367954
0.0116271482 0.0101083577 0.1601615642
-4.9397812659e-04 -0.003052862 0.3341133447
0.0092732958 0.9895358401 0.5015307875
0.9902700038 0.9893811313 0.6767258644
0.9912095082 0.9837412917 0.8378058714
0.0081947784 0.1756068486 0.9955104133
0.0113805986 0.157611119 0.1627674232
0.0020069883 0.1604391962 0.3151769856
0.9981376503 0.1598887141 0.4919894728
-0.0054680072 0.1667448463 0.6626136074
0.0060245794 0.179674284 0.8328805053
0.0015105418 0.3348165666 0.9930210078
0.9936876622 0.3312582639 0.1633446277
0.9921293225 0.3466335073 0.3402032463
0.9913473397 0.3277280899 0.4974099072
0.0077281766 0.3284425634 0.6490723666
0.0022648458 0.3324171735 0.8419576935
1.4848539573e-04 0.4932805882 0.9914514166
-0.00334709 0.4921694976 0.1568997397
0.0135456782 0.4955590272 0.3408220816
0.0023384309 0.494087887 0.4827069438
2.1683856383e-04 0.4924676637 0.6584336565
0.9919436719 0.50321852 0.8125883343
0.0043929358 0.689445742 0.0078555442
0.002697721 0.6635699892 0.1711006027
0.0135773232 0.6638062717 0.331981176
1.0024807488 0.6624870275 0.5051397222
0.9991643543 0.6678455783 0.6857327304
0.0023659409 0.6775134729 0.8265740113
0.0106299515 0.8307033303 0.9841379089
0.0085064464 0.8474709531 0.1656011262
0.9969815535 0.828081719 0.3285663304
0.9889113791 0.824754073 0.5208609509
0.0110296628 0.8368551154 0.6692576479
0.9980138833 0.8373276805 0.8304670477
0.1634973675 0.00918604 0.0055869785
0.1664826851 0.9935048245 0.1672250062
0.1596434303 0.9808018242 0.3372018953
0.1638998918 0.9955751098 0.4917531903
0.1595337277 0.9910885541 0.6588218349
0.1646320864 3.6946584369e-04 0.8426355994
0.1672646679 0.164474846 0.9996116034
0.1659158883 0.1819532855 0.1661130717
0.1503668083 0.1559216987 0.339010582
0.1617412818 0.1577137894 0.493435297
0.1717900414 0.1712553115 0.6624026408
0.1616282038 0.1783333805 0.8421996018
0.1838553601 0.3446194798 0.9949197069
0.1657608982 0.3249658343 0.1638399773
0.1639758397 0.3236972221 0.3239588206
0.1760968536 0.3293595647 0.4884874278
0.1701363448 0.3431005205 0.653016035
0.1645237902 0.3377363439 0.8430744098
0.1687000844 0.4934296713 0.0026234327
0.1459806727 0.5089371205 0.1473851475
0.1628551853 0.4977108862 0.3276718322
0.1602476385 0.4900992124 0.4968867101
0.1774363506 0.4906646028 0.6674799029
0.1701760065 0.4882764612 0.8290521653
0.163139287 0.6634827897 0.0079932632
0.1661802997 0.6692013901 0.1727925545
0.1675884312 0.6530835443 0.3371934566
0.173971717 0.6598879193 0.5145375796
0.1755688746 0.6659412534 0.6701521461
0.1634475794 0.6708216133 0.8355668129
0.1700550523 0.8269959444 0.0170436164
0.1650374235 0.8262786581 0.175052991
0.1514404875 0.8310915088 0.3518879813
0.1682722442 0.8203125236 0.4957953097
0.17013747 0.8189173313 0.6674067678
0.1682750571 0.8224137506 0.8242224373
0.3278574828 0.9832659137 0.9910379221
0.3307772601 0.0065550056 0.1619705322
0.343989393 0.0045485448 0.3325184375
0.330152799 0.9979069936 0.5068190161
0.322046057 0.0140054447 0.6670804729
0.3324931215 0.0095219551 0.8532570629
0.3352722544 0.17435652 0.0056875111
0.335708252 0.1656475388 0.1591390795
0.3401948077 0.1682882777 0.3470582534
0.3486250317 0.1555329577 0.5026925101
0.3151263536 0.1590597561 0.659195949
0.3238969371 0.1804382643 0.8386272346
0.3559160363 0.3300599737 0.001957594
0.3442538045 0.3384705076 0.1687329952
0.3377391568 0.3272077057 0.3383551792
0.3372300242 0.3271908284 0.5092831056
0.3253455742 0.3322230843 0.6608049207
0.3466053785 0.3289629476 0.8382362432
0.3365661827 0.4882145777 0.0046864325
0.3338517462 0.5057388673 0.1770774262
0.3213315836 0.4941975896 0.330054348
0.3322568389 0.5051425351 0.5130664394
0.3305494162 0.4925914308 0.6647767179
0.3408558363 0.4913396958 0.8256963904
0.3450104712 0.6643041528 0.0128390809
0.3261444342 0.642608351 0.1747477927
0.3452270636 0.654717832 0.3370387478
0.3353397637 0.665952505 0.4934690517
0.3231880894 0.6580567295 0.6763995694
0.3344115108 0.6716260992 0.8371082753
0.3348840759 0.8317440987 -9.0775388899e-04
0.3366871369 0.8285627228 0.1770653308
0.3283834928 0.8529448323 0.3371512633
0.3455364812 0.8104449139 0.515803379
0.3379388718 0.8185122755 0.6698455414
0.3279221792 0.8226866007 0.8260648787
0.4964816543 0.016814338 0.0078098348
0.5129089177 0.0078691867 0.1748788733
0.5103520029 0.0085871763 0.3368671617
0.4971089282 0.9957523217 0.4877729543
0.4994070574 0.0117585663 0.6646360736
0.4970836122 0.0033579339 0.8351758215
0.5033366613 0.1605258331 0.0097492364
0.5099778889 0.1693414228 0.1647589476
0.5060482849 0.1617604095 0.3355816721
0.5053563146 0.1830601568 0.5108948902
0.4983803534 0.169598802 0.6826357412
0.5210634788 0.1736111048 0.8299297862
0.5047937371 0.3236944092 0.9948015657
0.5053591275 0.3421019455 0.1670697348
0.5085855095 0.333432626 0.3249770859
0.4849009961 0.3387405448 0.5036995238
0.4968051364 0.3225551897 0.6574885262
0.484003685 0.3265719932 0.8356793284
0.495362125 0.4995589533 0.9913276495
0.4924254704 0.5042817915 0.1576485304
0.4885858789 0.510124159 0.3385999004
0.4841583938 0.4935703156 0.5079919902
0.4980540584 0.4912412447 0.6657668544
0.503693898 0.5016658061 0.8306470725
0.4845521981 0.6717892467 0.0112588569
0.4990132531 0.6576263577 0.1782737473
0.4957840582 0.6536208058 0.3257056238
0.4933509104 0.6779719736 0.5135418174
0.4937672178 0.6674995931 0.6783179587
0.5121916314 0.6630045988 0.8209594877
0.4982819023 0.8407537776 0.0020436121
0.505947021 0.8322729215 0.1558097458
0.5000258926 0.8390182259 0.335182242
0.4980428069 0.8343713357 0.4952074162
0.4934409228 0.820225324 0.6735416756
0.5035870083 0.8393248307 0.8281210995
0.6614603235 -2.9370053119e-04 0.9959239078
0.6661100267 0.9876849601 0.1606360983
0.6705768921 0.996044862 0.3411343121
0.6565124542 0.9957326315 0.5008303785
0.6599638673 0.0076723127 0.6603689231
0.6600370024 1.2622925822e-05 0.8407762807
0.6718539431 0.172251355 0.0106771798
0.6663603737 0.1829332955 0.1781114437
0.6726978094 0.1599143114 0.3316098748
0.6642225791 0.1684427052 0.5039217419
0.6643716621 0.1668444225 0.666275987
0.659997622 0.1779409827 0.8251760062
0.6698455414 0.3344705815 0.9775248102
0.6705825179 0.3342539891 0.1783080645
0.6631368045 0.3499048956 0.3418037794
0.668329395 0.3467994677 0.4873257052
0.6587908932 0.3289010641 0.6624138924
0.6664110056 0.3359360959 0.8277019792
0.6739551701 0.5113955842 1.0003907733
0.6725740423 0.5042255338 0.1611156956
0.6608189851 0.4903439336 0.3275705682
0.6750803251 0.4943551113 0.4863468203
0.6587346354 0.5018570824 0.6705684535
0.6574547716 0.5005997217 0.8310971345
0.6730634847 0.6661353426 0.9909619741
0.6803066703 0.6676374246 0.1581607572
0.6758454306 0.6622507449 0.3306084868
0.663873781 0.6695951944 0.4984028565
0.6648273499 0.6652408444 0.6618513149
0.6614096915 0.683541491 0.8300226115
0.6602339045 0.8435807296 0.0074745104
0.6577838794 0.8289734044 0.1494976261
0.6569315745 0.8224700083 0.3304903455
0.6451737044 0.8347032564 0.4968923359
0.6666782299 0.8226753491 0.665550262
0.6747230884 0.8424724519 0.8235220283
0.8163913583 0.0042027003 0.9952797566
0.8298932186 0.9890773395 0.1850373354
0.8318791173 0.991915543 0.3562170153
0.835814347 -0.0058221498 0.5179861798
0.8493865295 -2.1413013846e-05 0.6526756756
0.8259776791 0.007187624 0.8357440248
0.8267287201 0.1614059856 0.9737442893
0.8357243346 0.1538123143 0.1821366858
0.8436988709 0.1606566324 0.3299812129
0.8345176058 0.1621595582 0.5162365637
0.8304670477 0.176127514 0.6635615505
0.8198230811 0.1592074327 0.8351420669
0.8423627493 0.3483831234 0.996143313
0.8294825371 0.3302625017 0.1775421152
0.8249987943 0.3407151919 0.3347996893
0.8267484103 0.32905296 0.4888981094
0.8284164527 0.3454633461 0.647812193
0.8186304168 0.343890942 0.8114519277
0.8456594535 0.5166078649 0.9964555436
0.8269424996 0.5084786198 0.1751539737
0.84124322 0.5016995607 0.3311429355
0.8328973826 0.5066024238 0.4972214437
0.8356286964 0.4983465987 0.6583520827
0.8500700612 0.5107711232 0.8199215322
0.8552401486 0.6719720844 2.8153497807e-04
0.8247315699 0.6710016382 0.1688885479
0.8313587331 0.6504309913 0.3099422018
0.8107571445 0.6672576848 0.4990948268
0.8236514211 0.6655361976 0.6578148212
0.8198990291 0.6741014403 0.8399464788
0.8377242977 0.8311674567 -0.0031355608
0.8489617835 0.8422052276 0.1797097264
0.8337243715 0.8239186454 0.3341499123
0.8344304063 0.8394711008 0.4978796594
0.8243658946 0.8309002324 0.6613928142
0.8238623877 0.8390210388 0.8416060825
0.9997100545 0.0949200123 0.0674513213
0.0094786366 0.0805461568 0.2499351524
0.0053648166 0.0785523821 0.4203114716
0.991665196 0.0699474777 0.5718135965
1.0041206622 0.0758292256 0.7622207693
-0.0062044212 0.0910382275 0.9209604539
0.9794685155 0.251374507 0.0866982232
-0.002028127 0.2662929376 0.2492620284
0.9881406479 0.2396908972 0.4150204301
0.9975131893 0.2354324667 0.5723677353
-0.0056255289 0.2540858493 0.7476443859
0.9943402521 0.24706882 0.9157988052
0.9804699035 0.4058054104 0.0837981361
0.9934148121 0.4114283727 0.237666462
0.9859212796 0.4173044948 0.4217797989
0.0118153304 0.4005256204 0.5704605975
0.0113072667 0.4214084978 0.7358808901
0.9862166328 0.4376810524 0.9103277389
0.9998366344 0.577529384 0.0888309546
0.9997325576 0.5851241805 0.2511950448
0.9858762734 0.5882211697 0.3919772551
0.0221164341 0.5631414641 0.5896979357
0.0117328003 0.5788401896 0.7344153757
0.0066030497 0.5828007353 0.9020859783
1.0076480232 0.7504178931 0.0877389916
0.9879803133 0.7512842625 0.2443847627
0.0101130552 0.7400073962 0.4390199869
0.0013733854 0.7492786736 0.5941816785
0.989814316 0.7645948465 0.7413435178
0.0195875357 0.7374026623 0.9083362145
0.9951053575 0.9148649265 0.0838991188
0.9977438461 0.8960860891 0.2477008758
0.9885935228 0.9024207119 0.4151329456
0.0017980189 0.9112419273 0.6005697461
0.9947762497 0.9123727081 0.7561955642
0.9914092233 0.9084431042 0.8955853951
0.1681135973 0.0812651309 0.0811531779
0.1647299749 0.0833458238 0.2580849316
0.1756808275 0.0670690498 0.4134086455
0.1827546772 0.0630328375 0.5854251594
0.1656393814 0.0774961428 0.7400692797
0.1577829864 0.0945779652 0.9161166615
0.1593306372 0.2656575063 0.0815796117
0.1943294283 0.2457326984 0.2498608922
0.170907076 0.2560365869 0.412570405
0.1811988691 0.2306497139 0.5742636215
0.1579787634 0.2467830306 0.7422183258
0.1496804638 0.2586885773 0.9240883849
0.1632447702 0.4115352624 0.0778033101
0.1530033279 0.4082301195 0.2460961235
0.1616948692 0.41422157 0.4164128094
0.1731866401 0.4178923883 0.5769358647
0.1783823247 0.407065584 0.7410256615
0.1718600823 0.4189415954 0.9143951743
0.1678036171 0.5830398308 0.0838012303
0.1610600005 0.5919313684 0.2445602869
0.1440966006 0.5823534862 0.4184802818
0.1786208576 0.5741482931 0.5808626558
0.1597846372 0.5713410313 0.7575991951
0.1728918495 0.5774562489 0.9023419511
0.1770245439 0.7576976461 0.0921616948
0.1604690128 0.7467611392 0.2570554148
0.1775364894 0.7303676304 0.4053806644
0.1638441966 0.7484348073 0.5849160268
0.1749677605 0.7620660605 0.747292775
0.1712958171 0.7461226138 0.9096188912
0.1664821226 0.9202628578 0.0784764341
0.1750302066 0.9227803922 0.2583639701
0.1719588147 0.9098776769 0.4185027849
0.1631814803 0.9112588047 0.5889806493
0.1662781882 0.9272697607 0.7469805445
0.1723945309 0.898465792 0.9114107006
0.3293089328 0.0828445672 0.0694484714
0.3321527621 0.0832968796 0.2390959715
0.336760272 0.0776708231 0.4189219052
0.3341302221 0.0901898606 0.585712074
0.3235368875 0.0756098204 0.7561814997
0.3349375208 0.0942823307 0.9277226356
0.3352553771 0.2436896982 0.0850349628
0.3297449303 0.2529207513 0.2380827693
0.3445800994 0.2450961419 0.4164775059
0.3424226146 0.2458159599 0.5836867949
0.3290501471 0.2447923501 0.7422773964
0.3208758958 0.2593639516 0.9283077163
0.3419359851 0.4234590928 0.0798578432
0.3450723547 0.4103060305 0.2593864547
0.3292414235 0.4172201082 0.4274308901
0.3259390934 0.4161793398 0.5835517763
0.3294945833 0.410770157 0.7467470748
0.3488106823 0.4106717059 0.9197790411
0.3280965782 0.5630289486 0.0786089211
0.3340795901 0.5829470055 0.240386243
0.318394929 0.5765223703 0.4163002939
0.3195425871 0.5800553571 0.599672435
0.3322202714 0.5723677353 0.7518693431
0.3260291059 0.5777572279 0.9186398217
0.3216494399 0.7436613371 0.1011618098
0.3452945729 0.7600098397 0.2617315591
0.3188309265 0.7322607038 0.3968604279
0.341111809 0.7324772961 0.596145074
0.3420766295 0.7490170751 0.7605077208
0.3435365181 0.7462857612 0.9237423997
0.3437193558 0.9372105054 0.0892782037
0.3254158964 0.9189014202 0.2394287361
0.3533591215 0.9161279131 0.4211103317
0.3397559972 0.9026232398 0.5993151983
0.3273821048 0.8952140939 0.7484516847
0.3345999743 0.8946233875 0.9120886065
0.5125432423 0.0836873084 0.0885662619
0.4956293493 0.0932643467 0.2468786688
0.5107626845 0.074373275 0.417900827
0.4910246524 0.0774463547 0.5667925921
0.51047577 0.0993027724 0.7391410268
0.5157133666 0.0871806334 0.9240152498
0.5225318061 0.250432471 0.0921344097
0.5057332415 0.2401102987 0.250303922
0.4964085192 0.2475396974 0.4248233433
0.4831063739 0.2483399639 0.5878104881
0.4947657929 0.2632474242 0.7584599387
0.5029512957 0.2509641067 0.917404964
0.5062283097 0.413346762 0.0823179947
0.5039808126 0.423355016 0.2491312292
0.4942988535 0.4176617315 0.4206321408
0.498090626 0.4151132554 0.5866740815
0.4964563383 0.4113889922 0.7525894423
0.4870416036 0.4293661567 0.9101842816
0.4989344923 0.5794083929 0.0896337527
0.5049878263 0.5640612783 0.2508161488
0.49186008 0.582783858 0.4251355738
0.4941103901 0.586986312 0.5775856418
0.5068049517 0.574077971 0.7389694406
0.5079554227 0.5847556922 0.913503489
0.5045518287 0.7612643876 0.0864594091
0.494487317 0.7456303584 0.2520473497
0.4942763504 0.7468736547 0.4057575913
0.5043014817 0.7486851543 0.593543153
0.5033563515 0.7599057629 0.756876283
0.5010976028 0.770611613 0.9202375418
0.504771234 0.9261417928 0.078357449
0.5061861164 0.9228141468 0.2399333681
0.4946785933 0.9188732913 0.411343986
0.5080454351 0.9248141099 0.5987807496
0.5028106513 0.9103924353 0.7444348812
0.5052972439 0.9121645545 0.9174612218
0.6658990601 0.0825396502 0.0826600418
0.6627261229 0.0887929806 0.2518307574
0.6715585899 0.0851733569 0.4281622408
0.6572803726 0.0928379129 0.59181604
0.6627823807 0.0710883849 0.7564402854
0.6632633844 0.0998071232 0.9214639608
0.6709622577 0.2653646847 0.0816718744
0.6667344877 0.2428289546 0.2710706271
0.6736007463 0.2446339845 0.4056872691
0.6668357517 0.2511109394 0.5952955819
0.68279045 0.2494333333 0.7585752671
0.6717751822 0.2416908602 0.9007554825
0.6750803251 0.4132004918 0.0877159259
0.6616262839 0.4365277685 0.2483804695
0.668079048 0.4224126986 0.4111723999
0.6525265926 0.4258950535 0.5623341653
0.666177536 0.4188459572 0.7499903342
0.6750887638 0.4101513217 0.9060999689
0.663274636 0.5857148869 0.0871437846
0.6674939673 0.5874476256 0.2435828084
0.6610046357 0.5715126175 0.423003405
0.6628752059 0.5800891117 0.5816305741
0.6531313634 0.5849300912 0.751520545
0.6553394801 0.5886149739 0.9167692514
0.6742392718 0.7536752169 0.078462651
0.6640200512 0.7458047575 0.2387167942
0.6564336934 0.7420608041 0.4138840235
0.6544252917 0.758701847 0.5750427914
0.6581045486 0.751121115 0.7475599993
0.6709875737 0.7565949942 0.912701816
0.6691957643 0.9229407268 0.0851412899
0.6502425278 0.9188986073 0.2607734896
0.6428474464 0.916305125 0.4286882508
0.6554660601 0.9210420277 0.5914053584
0.6711675985 0.9204963275 0.7550394674
0.6732013162 0.9174246542 0.9116469832
0.8382896881 0.0764221823 0.095925057
0.8273531812 0.0743760879 0.257535856
0.8444274088 0.0856906469 0.4332198127
0.8395583004 0.085212456 0.5919116782
0.8197358816 0.0720487047 0.7522490829
0.8197218172 0.0745240458 0.9204991404
0.835988746 0.2444328631 0.079293578
0.8379296385 0.2490592192 0.2602384783
0.8454569256 0.2432905494 0.4078109992
0.833513405 0.2525829235 0.5658896552
0.8323038633 0.270282456 0.7369244714
0.8293953375 0.2577060357 0.9026288656
0.8499941133 0.4260356978 0.0693100774
0.8182928703 0.4175126485 0.2461158137
0.8419745708 0.4247924015 0.4210540739
0.8394457849 0.4255350038 0.5790820979
0.8290437266 0.4200639375 0.7423477186
0.8417411011 0.4170879025 0.9069663382
0.837715859 0.6061308249 0.094865161
0.8369507536 0.5692594945 0.2522774439
0.8244165265 0.5933153091 0.4338949057
0.8254488563 0.5795462244 0.5870397569
0.8349929838 0.6064543069 0.751346146
0.8423543106 0.5827726064 0.8993827933
0.824154928 0.7546203471 0.0854425502
0.8331308522 0.7509382773 0.2462609587
0.8310465026 0.7506035437 0.4293436536
0.822903193 0.7573966672 0.5840805992
0.8139582105 0.7508651422 0.742114249
0.8452375204 0.7552166793 0.9105977761
0.8411110143 0.9193177276 0.096202689
0.8258848539 0.9165385946 0.2505087002
0.8411897752 0.9056161522 0.4165225121
0.8303235904 0.9246537753 0.5991548637
0.8371842232 0.9186173186 0.7482238408
0.8216514581 0.9290475057 0.9098804898
0.0825464012 1.9936433519e-05 0.0768055789
0.092532152 0.9953247628 0.2427901367
0.0725111434 0.9855471655 0.413996539
0.078258154 7.4360802015e-04 0.5873773034
0.082516022 0.9883206727 0.7492055385
0.0881502358 0.0053787686 0.9189689295
0.0801439139 0.1690393186 0.0790089137
0.09615487 0.1905247165 0.2622004674
0.0790924565 0.1581959183 0.4083398221
0.0992723933 0.1539974023 0.5817233994
0.0840842068 0.1815009732 0.7346994773
0.0752238922 0.1662157421 0.9156440964
0.080721681 0.3363017713 0.0897102632
0.076401367 0.3393031223 0.247891027
0.0857345279 0.3165862423 0.4178867625
0.0989548183 0.3310979293 0.5760919985
0.0913802746 0.3329713124 0.7558130115
0.0855775688 0.329652105 0.9201025232
0.0814867864 0.4932693367 0.0790187588
0.0765344165 0.5003437489 0.2598283593
0.0741524633 0.5003296845 0.427281807
0.0924640802 0.5057135513 0.5756813169
0.0935658882 0.4819137095 0.7364181516
0.092197981 0.4985097462 0.9228872819
0.0830940704 0.6836118132 0.1020667158
0.0693587403 0.6672717492 0.2492862193
0.0828299402 0.6737357649 0.4228177544
0.0904427392 0.670354674 0.5857148869
0.0897420489 0.6689172885 0.7516752538
0.0883502321 0.652189046 0.9036527567
0.081895499 0.8349479776 0.0807725942
0.0851283507 0.8296991294 0.2524875666
0.0786471764 0.8368185479 0.4225645946
0.0956544573 0.8349198487 0.591365978
0.1014926054 0.8455497509 0.732356342
0.0982515964 0.8191845556 0.9235286203
0.2529716646 0.0033257826 0.0832448411
0.2540641901 0.0064339952 0.250608839
0.2543916102 0.9940055185 0.4161680882
0.2273667928 0.9840310191 0.573751676
0.2505393607 0.0109638412 0.7499565795
0.2434368196 0.0201054164 0.928088311
0.2536810748 0.1500858009 0.0921178137
0.2461897926 0.1436344432 0.2404942579
0.2364988324 0.1576760967 0.4104719909
0.2479574112 0.165113934 0.5775659515
0.2343703203 0.1726735694 0.7626961473
0.240440813 0.1825971555 0.9240208756
0.2669396204 0.3387658608 0.0975866297
0.254582324 0.3302934434 0.2325413808
0.2535595581 0.333306046 0.4174732681
0.2513739444 0.315542661 0.5832451716
0.2448924889 0.3285803949 0.7527132093
0.2564121074 0.3288194903 0.9093122865
0.2480772402 0.4891147017 0.0740973307
0.2357908286 0.491533785 0.2367435536
0.2489244819 0.4857279851 0.4221679774
0.2420112481 0.4973255206 0.6035682843
0.2547404083 0.4934493615 0.7666988864
0.2511396309 0.4850613307 0.9198352989
0.2535862805 0.6615418972 0.0813095745
0.2540585643 0.6795021844 0.2617630634
0.2406675317 0.6500315613 0.4212847307
0.2525089446 0.674357413 0.5874082452
0.2601625304 0.6606136443 0.7506288596
0.254689495 0.6568921941 0.9179787931
0.2676900988 0.8350323642 0.0859044263
0.2405952405 0.841018189 0.2539857105
0.2545440687 0.8342025624 0.4135014708
0.2506161525 0.8297694516 0.5840946636
0.2539986498 0.8080595853 0.7359455865
0.2523047289 0.8244981003 0.9068903903
0.4177123635 0.0012324879 0.0876579805
0.4189556598 0.9907622591 0.2307639172
0.4175182743 0.0030423841 0.4210962673
0.4148797857 0.9978338585 0.5999593495
0.4168094266 0.9934485667 0.741562923
0.4066492767 0.0014759996 0.9331543216
0.4153804797 0.1640042499 0.0850321499
0.410995188 0.1816745283 0.2258149228
0.4325672228 0.169054227 0.4199401705
0.4100584964 0.1678224635 0.581532123
0.4001627579 0.1564347694 0.7725243765
0.4031050383 0.1679271029 0.9215933536
0.430210023 0.3425323173 0.0882838479
0.4141203061 0.3189490678 0.2463512524
0.4169556967 0.3427039034 0.4331269874
0.4203677294 0.3331091439 0.5939594603
0.4087054975 0.3382370379 0.7384884369
0.4239457224 0.333255414 0.9279195378
0.419526676 0.5071424982 0.0784530872
0.4181455482 0.5048612464 0.2523258256
0.4046521265 0.5068105775 0.4039292144
0.4124803926 0.5095278269 0.6021815307
0.4142271958 0.4938853591 0.7443195528
0.4073496857 0.50664743 0.9068313196
0.4188684603 0.6608836815 0.0852161128
0.4144269108 0.6708103618 0.2415296818
0.4190822397 0.6713870037 0.4060107512
0.4143622144 0.6521327883 0.5949777256
0.4268176806 0.6774544023 0.7551351055
0.4331326132 0.6574857133 0.9058636863
0.41619903 0.8407312745 0.0912520069
0.4333801473 0.842193976 0.2414011328
0.4125394632 0.8225712723 0.3968041701
0.4385024156 0.8342194397 0.5796362368
0.410893924 0.8342588202 0.7556667413
0.4180921033 0.8416117083 0.9178747162
0.58323392 0.9945230898 0.0814150578
0.5922182829 0.0144561818 0.2530006373
0.5870397569 0.0089589556 0.4188909634
0.5689388254 0.0027294223 0.5814167946
0.5758894706 0.9958423341 0.7414250915
0.588013016 -0.0049965673 0.9223331431
0.5921226448 0.1701807884 0.0899468271
0.5852873279 0.1622405694 0.2485236455
0.5702130634 0.160137092 0.4082188679
0.5811861379 0.1731770763 0.5832929906
0.5931746647 0.1585087114 0.7554107685
0.5939088284 0.1729070391 0.9193964884
0.5927049125 0.3379698136 0.0805801927
0.5780666455 0.3318264671 0.2459172238
0.5784998302 0.3296155375 0.4235209763
0.581408356 0.3298630716 0.5695464091
0.5829976375 0.3409149069 0.7399736415
0.579281813 0.3379754394 0.9191967734
0.5947751977 0.5062311226 0.066895776
0.5801397437 0.5014632782 0.2444756189
0.5982378623 0.4999836993 0.4115718299
0.5632230378 0.4986053844 0.5719936213
0.5742298669 0.5005603413 0.7459847823
0.5724689993 0.4873875888 0.9240208756
0.5927949249 0.6696908325 0.080603821
0.5843168817 0.6657865446 0.2490479677
0.5752453193 0.6599329255 0.4200667504
0.5706321837 0.6710888377 0.5872732266
0.5792002392 0.6622451191 0.7574923053
0.580657315 0.672731564 0.9100295728
0.5818809211 0.8303067131 0.0788769893
0.580606683 0.8075476397 0.2597234386
0.5687897423 0.8347792044 0.408367951
0.579205865 0.8304192286 0.5950621123
0.5866403269 0.8204700453 0.7289386836
0.5863534123 0.8530376576 0.9142685944
0.7477990947 0.0018828837 0.0880531912
0.7409300233 -0.0023001332 0.2626176187
0.7540662083 0.9927565964 0.4304434927
0.7361846819 1.0015384314 0.5794590249
0.7472955879 0.0018094111 0.7466120562
0.7339484363 0.9841885408 0.9119085817
0.7665638678 0.1707970921 0.0773554984
0.7484488718 0.1630453365 0.2462966824
0.7441564053 0.1651009948 0.4070262036
0.7370482384 0.159607144 0.5779260012
0.7456556744 0.167457632 0.747391226
0.7295884606 0.1800011415 0.9162629317
0.7532645353 0.3600650455 0.0707443688
0.7345757103 0.3461440649 0.2518259755
0.7569578567 0.3270586227 0.4266882878
0.7293549909 0.3365999374 0.5738782559
0.7409694037 0.3296211633 0.7230316196
0.7631321449 0.3512494559 0.8981507486
0.7517821436 0.5135502561 0.0664800312
0.7375123649 0.4978571563 0.2459841706
0.7573826027 0.4894494353 0.4045114821
0.755849579 0.4951174038 0.584108728
0.7693008074 0.5279972467 0.7466626882
0.7613487742 0.5098541218 0.9148818039
0.7546822306 0.6729031502 0.0777419892
0.7556048578 0.6533676459 0.2346577974
0.7306348548 0.6681718733 0.42570659
0.7361649917 0.6672126786 0.592690848
0.7430959467 0.665901873 0.7452731217
0.7490958359 0.6634209061 0.9142967232
0.7650167796 0.837240481 0.0699576041
0.7502209909 0.8220818298 0.2586182551
0.7288571098 0.8130383963 0.4194169734
0.7461451169 0.8350548673 0.5902802034
0.744966517 0.8420111383 0.7411409899
0.7410959837 0.8229594508 0.9308927599
0.9303245567 0.0074970698 0.0883870809
0.9221249894 -0.0063447843 0.2666943366
0.9275510495 0.9962023837 0.4282269373
0.9196412096 0.9955413551 0.5780441424
0.9172418165 -0.0038640987 0.7647129877
0.9031773787 0.0170397909 0.9334974938
0.9132081358 0.1588696049 0.0718037022
0.928664953 0.1660385302 0.2516887066
0.9185638737 0.1590507549 0.411794048
0.9166061039 0.1747244457 0.5798753322
0.9239421147 0.1662759379 0.7538242999
0.9201053361 0.1715028456 0.9083671562
0.9004460648 0.3168140862 0.0929040158
0.9138241581 0.3228899233 0.2635379955
0.9043784817 0.3201529837 0.4169725741
0.9233626599 0.3268110886 0.5908062134
0.9397533558 0.3410442997 0.7497709289
0.9150899575 0.3293933194 0.896688047
0.9161672935 0.5085292518 0.0765296346
0.9206257203 0.4835676874 0.2545865433
0.9083559047 0.5216288692 0.4025227706
0.9291375181 0.4983437859 0.5812845889
0.9102461651 0.5017108123 0.725824817
0.924285287 0.525912897 0.9339616203
0.9355874693 0.6803319862 0.0904818383
0.9252332301 0.6675502251 0.2499584994
0.9130140465 0.6655418234 0.417900827
0.9035318025 0.6607458501 0.5669304236
0.8987020745 0.6860337094 0.7494868273
0.9237564642 0.6810352081 0.9109859546
0.9203894377 0.8313081011 0.086872341
0.9078523978 0.836739787 0.2582807086
0.9345241978 0.817049574 0.4166603435
0.9172165006 0.8405484368 0.591866672
0.9054248758 0.8262364648 0.7574894924
0.9011886671 0.8247568859 0.9238661668
0.0737775054 0.1027164928 0.0128562957
0.0968561228 0.0917102263 0.1530629611
0.0880349074 0.065021549 0.3324002962
0.086322984 0.0731882055 0.5025546786
0.0810164716 0.077167035 0.6752434726
0.0959394028 0.0954133928 0.8333165028
0.0708920454 0.2515413112 0.0124302276
0.0668637091 0.2386039974 0.1746586242
0.0813784902 0.2508856272 0.3369937416
0.0784902173 0.2458401507 0.4905661517
0.0945315525 0.2501970323 0.6600848215
0.0712366241 0.2483869391 0.8200199833
0.0792165048 0.4055578763 0.9862194457
0.0768078292 0.4245392416 0.1670219157
0.0751771983 0.4150148043 0.3330331959
0.0902618705 0.4027590531 0.4977980857
0.0942623592 0.4165281378 0.6545968778
0.0790263536 0.4233522031 0.8331336651
0.0898981641 0.5872563492 -0.001287775
0.0683115023 0.5747643155 0.1637733118
0.0762376569 0.5931774776 0.3242091676
0.0727353306 0.5916866472 0.5005631542
0.1025328112 0.5865587531 0.6774318992
0.0863392988 0.5694451451 0.8224193764
0.084362964 0.7353717574 0.9944555805
0.0820240479 0.7607468163 0.1638515101
0.0879524898 0.7484376202 0.3351006683
0.0736950878 0.7538693061 0.4957699937
0.0827056106 0.7543193681 0.6665319598
0.0806395447 0.7503081905 0.8302504554
0.0920443973 0.9197762282 0.9949225198
0.0811635856 0.9252332301 0.1530134543
0.0713606724 0.9113235011 0.3265579287
0.0858909245 0.9108706262 0.4986278875
0.0744886034 0.9215708505 0.6589849824
0.0969542926 0.8983279605 0.8497831467
0.2518788578 0.0938581473 0.0018402966
0.2418281292 0.0840425761 0.1690170968
0.2605147039 0.0856948662 0.3346843609
0.2495871982 0.0884619037 0.5058007508
0.2341632918 0.0888540203 0.6697667805
0.2585257111 0.0976316359 0.834438845
0.2685536553 0.2512904017 0.0164006747
0.2580508957 0.2488921337 0.1604152866
0.2570135027 0.2490445922 0.3397025524
0.2562177368 0.2455405782 0.4862652466
0.24422921 0.2537705246 0.6727765702
0.2497630037 0.2533601244 0.8443261448
0.2647241902 0.4058166619 0.9918255306
0.2585361188 0.4328344471 0.16357866
0.2350195348 0.4062104662 0.3292976812
0.2540968196 0.4112286576 0.5087908503
0.2467411186 0.413746192 0.659646011
0.2502878885 0.4208965522 0.8308805422
0.2517396198 0.5822437836 0.0094296361
0.2497824126 0.5847641309 0.1691113286
0.248680042 0.5600416619 0.3439781415
0.247925063 0.5889356431 0.4978205888
0.2539640513 0.566744773 0.691496337
0.2644251802 0.5817937216 0.837164533
0.2519235827 0.7410819192 0.9814487883
0.2380802378 0.7605189724 0.171687371
0.2402610695 0.7610899885 0.3212837645
0.2431515928 0.7545162703 0.5016489288
0.2484769515 0.7528144733 0.6537895791
0.2436373784 0.7396417208 0.828582413
0.2532726435 0.9005642061 0.9942024206
0.2261094321 0.9054558176 0.1544654668
0.2418168776 0.9179591029 0.3287379166
0.2525972692 0.9001535245 0.5037473429
0.2543578556 0.8981001166 0.6731225554
0.251837227 0.9256748535 0.8399830464
0.3992148148 0.0822763639 0.0118290292
0.4246011252 0.0803132497 0.1488931365
0.432285934 0.0807233687 0.345041413
0.421028758 0.088487501 0.4946026454
0.4152792157 0.098247377 0.6673758261
0.4231356107 0.0813798967 0.8488858356
0.4338780284 0.2508206494 0.0128297983
0.4348119071 0.2611028787 0.166096757
0.434038363 0.2328105742 0.3439106322
0.4185449782 0.2628474316 0.5084082976
0.4016451497 0.2491928314 0.666076272
0.4060529445 0.2409887635 0.8487705072
0.4263141737 0.4179964651 0.0072156685
0.4158446061 0.4260694525 0.1840044431
0.3982246784 0.3970798331 0.3440990956
0.4017914198 0.4292761443 0.5074603545
0.4105395002 0.4202889685 0.6526784885
0.4327303703 0.4179627105 0.8159834896
0.4239344708 0.5754844147 -0.00276651
0.4128910742 0.5882521114 0.1708758529
0.4070599582 0.5781116517 0.3280459462
0.4101991408 0.5902464487 0.4931511954
0.4059629321 0.579281813 0.6822981947
0.4125000828 0.5812480214 0.8219946303
0.4122834905 0.7469889831 0.992767848
0.419701075 0.7550957251 0.1705917513
0.4264716954 0.747967868 0.3238575566
0.4264604439 0.7577904714 0.4966588662
0.4164071837 0.7485529486 0.6689707333
0.419326961 0.7615709923 0.8409844344
0.404815274 0.9206257203 0.0053369409
0.4166294018 0.9282289554 0.1661082898
0.4252143347 0.9107918653 0.3168281506
0.416823491 0.922459723 0.5084758069
0.4077631801 0.9062406132 0.6731872518
0.4009447407 0.9118607626 0.8294628468
0.5874560643 0.0902554008 0.0092638164
0.5882999305 0.0850301809 0.1719247787
0.5921254576 0.095182736 0.3412440147
0.5847134989 0.0960254771 0.4996067724
0.5809695455 0.0912697281 0.6715417126
0.5852817022 0.0676364093 0.8376483497
0.5959903652 0.2502262863 3.6265865576e-04
0.5895685428 0.2659477963 0.1724468507
0.5901705008 0.2560129586 0.33037783
0.5880327062 0.2514226074 0.5001130921
0.5893238216 0.2528816522 0.6705684535
0.582384428 0.2518090981 0.8370604562
0.5915544415 0.4237994522 0.0024063621
0.5744802139 0.4186856226 0.152289417