Cl
  1.000000
35.55065700	0.00000000	0.00000000
0.00000000	35.55065700	0.00000000
0.00000000	0.00000000	35.55065700
Cl Na 
864 864 
car
 6.31928997	34.62600041	6.35590004
 0.58761717	32.15990039	2.55686013
 0.06492012	35.12290047	12.19490028
 0.01473113	0.14710684	18.76690031
 3.01952989	5.97752017	27.00540032
 32.67770033	32.65840059	29.95510055
 1.47933003	5.70331014	0.87903514
 0.17657798	5.93166018	6.04669998
 0.28246597	6.09477015	12.15000015
 35.35790063	5.20360015	18.39600031
 35.42310053	5.72910996	24.16860045
 0.00320240	3.39032004	26.93060032
 0.50335784	11.42230024	35.54324398
 0.02175700	11.89950027	5.48180999
 35.21530054	12.04430023	12.06120030
 35.36290047	11.72030007	18.08070011
 0.26358395	11.69110018	23.40380024
 0.87623908	14.83970029	26.36410025
 0.11533913	18.08890023	0.71225599
 0.68444898	18.14060012	6.09361013
 32.20120030	14.82380026	11.94590028
 0.42952695	14.91670017	20.17350045
 0.85210517	18.40740034	24.20410027
 34.97780047	17.37100021	29.58170027
 32.58300049	26.39030037	0.04695566
 0.06947416	23.59160049	5.57867024
 32.32620032	23.94560043	8.40365023
 0.05159147	23.95080042	17.49550039
 35.02670040	23.10990047	24.54110024
 0.20990814	23.21430030	30.43060054
 35.37163705	29.28110027	0.47351413
 32.57130042	26.79040026	5.57847009
 3.18738019	33.40220033	11.76089999
 0.48610689	29.39810032	17.35070008
 33.12900028	32.74160051	23.97770018
 0.36078584	29.39830047	29.49810041
 6.12018994	34.97540044	35.40440053
 3.41000018	32.00880050	6.64370998
 6.16640010	34.83400055	12.43930002
 6.41799992	0.12422111	17.95950010
 6.74310002	0.40348609	23.99070035
 2.47010018	1.64779997	29.75750040
 8.63066002	6.23013994	33.02910045
 5.58941010	5.26772998	5.75786013
 5.72504012	5.25748001	11.59150004
 5.44664008	5.72457014	17.36270020
 8.53997029	5.33792013	26.45570042
 2.80821999	11.83550020	26.52040049
 6.12214025	14.91370005	2.47638020
 5.99971018	12.31180008	5.50919004
 35.32230055	8.83768998	9.15176013
 9.83814022	11.60490015	14.91380030
 5.31846005	10.95990031	23.04850022
 3.20690994	9.09868015	29.21370049
 6.25385010	17.69790024	0.16029507
 6.18325005	17.93220040	6.35867014
 6.75737005	20.40390035	14.82370036
 5.96109008	17.01570019	17.71760028
 6.58893993	18.11920041	24.05420022
 3.09735988	17.92260030	27.27990046
 5.60337013	24.23300047	0.10855500
 5.68749009	23.40770050	6.66615027
 6.19365004	23.56340029	11.83940011
 6.78454000	27.42440037	22.12350021
 6.68136026	23.04430026	23.62840040
 6.92579022	23.55030023	29.65820030
 5.77780014	29.03690031	0.49662704
 6.06965006	29.29110031	6.49851008
 5.54241995	29.04600057	11.09560002
 6.43091015	28.85030025	17.71710008
 8.95413011	32.48600053	23.95100022
 6.11855994	29.82930028	30.40560025
 12.36320029	0.18840106	0.51904599
 12.62220033	34.93350044	6.33966014
 11.86110023	35.51240058	12.28570021
 12.05610020	35.34320043	18.31680020
 15.46560018	0.24505708	20.99670045
 12.41810010	34.98780051	29.81000054
 11.84650028	5.95808996	35.30990049
 11.69509999	5.33713019	5.41625991
 11.75240018	5.79160019	11.59500000
 11.45670013	5.51834007	17.76860018
 11.90840002	5.46039001	23.57300039
 12.69910031	5.60042014	29.86420036
 12.46270018	12.89520023	0.40728006
 14.01270029	14.11310032	5.77837002
 12.05580015	11.82910001	11.46040024
 11.85580033	11.96200010	17.59850024
 11.19740003	11.72710020	23.64700015
 11.85680002	14.12560029	26.51080039
 15.81740024	14.13330020	0.48147783
 11.55880019	18.64630040	6.49650004
 12.02920009	18.02700013	12.27040027
 12.20500022	17.08600019	17.32070030
 12.16960030	17.37260035	24.38530020
 12.41420019	20.93950015	27.00350050
 12.47180008	23.86090027	34.81100034
 8.48253003	20.80600032	6.07039022
 12.20540016	23.93500029	12.00630013
 12.39390006	23.43690039	18.03060035
 12.47680028	23.17590026	23.67420031
 15.10510017	20.74610031	29.82470038
 12.42650001	28.27300024	34.43430060
 12.29530031	29.07830048	5.23532022
 13.22440002	29.49820031	11.42630005
 12.19000033	29.77940032	17.33850016
 8.67135023	29.28440043	26.31260050
 15.41200010	26.69330040	29.17850036
 14.48110010	34.77100052	2.66428995
 17.47560020	34.84890054	5.70456010
 18.03270033	0.07090579	12.16240022
 17.46380023	35.36040055	17.85680030
 18.13090013	0.03162160	23.71310020
 14.95180005	34.51120058	32.39100028
 17.64210028	9.02498008	32.66130046
 17.91690010	5.33074992	6.41283015
 17.46580031	5.41726991	11.60690023
 18.01330033	6.22772996	17.07040021
 17.16560025	6.82856024	22.54430018
 18.06640022	6.38695994	29.81320046
 18.29210032	12.12000002	35.33990062
 14.84500018	7.95795022	6.37112994
 17.45550021	11.83730013	11.70440004
 17.39300038	11.58739998	17.69920032
 18.21940029	11.86490024	23.70620017
 20.63030044	11.71670021	26.60910044
 18.12770021	17.67060018	0.20672707
 17.40520030	18.38800035	5.68187025
 14.71230025	14.94570026	12.27000033
 18.08250040	17.35950029	17.23250019
 17.91710025	17.95090040	23.59530025
 20.66480022	17.01760037	32.44660044
 18.24600036	24.07860041	0.06041870
 17.93720024	24.39450035	4.96861990
 17.94450021	23.55470033	11.76030025
 17.45360039	23.61290031	17.88240032
 17.90110033	23.45470025	23.90580040
 17.84190030	23.54650022	29.24000051
 17.74280036	28.97340044	0.05154348
 18.18940016	29.28590032	5.84048021
 17.82620007	29.35410034	12.46860016
 17.87200034	29.25170023	17.44040007
 15.38210022	29.75820039	20.45490026
 18.84250021	30.86850038	29.38660040
 24.75740039	35.36500045	0.05312939
 23.28010030	34.77830049	5.28666995
 24.22610044	0.12661295	11.79390024
 23.68110034	35.41690050	18.04860036
 22.80530030	0.35580804	23.84590039
 20.52330043	0.18561105	32.87150047
 23.69690047	5.66616005	0.71389203
 26.25800038	3.46662989	0.44759308
 23.54460039	5.89438994	12.16370031
 23.20960015	5.76065015	17.48270038
 22.93540042	6.32753026	23.10340038
 23.97410032	2.73798006	32.48220052
 24.08500024	11.88560032	1.02216991
 23.31230031	11.41740030	6.22593003
 23.06690017	11.12130030	12.24150008
 25.68380038	11.54650002	15.75780027
 22.86780049	8.61563027	20.18630011
 24.38700023	11.68880006	29.85050056
 23.76080029	17.83960018	0.18149499
 23.49620031	17.13240020	6.44290991
 24.15640018	17.90060013	11.28290008
 24.16850020	17.20050033	17.90150027
 23.90240033	16.94920020	23.72210020
 24.31680048	17.69740039	28.85620023
 23.55570037	24.42920028	0.28904213
 23.60460030	24.53570045	6.14513015
 24.01240047	24.33970043	11.69560019
 20.94850015	23.95920033	15.56370009
 23.64550027	23.84120023	29.86590040
 23.43130045	26.73150029	32.68450046
 20.88460034	32.18310040	0.16564615
 22.61210026	29.50900024	6.05679992
 23.86410019	29.82370034	12.50180021
 23.88460048	29.52040027	18.35100029
 23.84830041	33.07610055	26.59950034
 23.19400017	30.74140038	29.84680045
 29.98890034	35.29140063	0.06637983
 27.40530042	3.32427012	5.96406994
 29.85240039	1.00856005	11.80430023
 29.88980039	0.16137012	17.77960027
 29.35660026	34.98500054	23.40930028
 29.95080034	0.32482884	29.80740037
 30.20540028	5.30532018	0.43893401
 30.26780057	6.39245002	5.72472016
 29.80360036	6.56060001	12.09500009
 29.44040027	5.76468017	17.55790033
 32.54850036	5.54852009	20.97310014
 29.36820044	6.45216020	29.54060051
 29.75640046	11.92650028	0.43844199
 29.95520045	12.62420006	5.64449015
 30.24380033	11.75610029	11.83320007
 29.37970037	12.06930016	17.72010020
 30.09100040	11.32000003	23.59810022
 31.13270042	9.98016011	27.86520043
 28.64720041	18.74730017	35.29910055
 29.71100050	17.11350040	6.12975022
 32.67030046	17.71200034	14.60250026
 30.35510054	17.57280032	17.80280027
 27.25780039	17.55920041	20.70420031
 30.51410050	17.99650016	30.49310037
 29.84760034	23.80870018	0.41729503
 29.03640047	23.61080034	5.37675993
 29.84310034	23.56760024	12.15540030
 32.67640060	20.58400034	17.28230026
 28.12080041	23.87240020	22.91760021
 29.08750028	23.41660025	30.16010057
 29.01530045	32.43550046	3.76291013
 29.61550041	29.57110048	6.15677014
 29.86650049	30.34100044	12.63120034
 29.58350055	29.72360036	18.18950041
 29.90830024	29.80450050	24.15190018
 29.22360028	29.35250056	29.89550058
 0.36805417	3.17230991	32.65120052
 0.03482827	34.64430047	6.45719026
 0.36526309	3.11572002	14.92430019
 35.19820032	2.52298996	21.57900030
 35.45680042	35.02260034	28.76780033
 29.99410033	12.18850009	30.01640055
 35.29020044	8.69176022	3.04193001
 2.74715996	1.80858990	5.88583005
 0.47884993	8.88390015	14.97350017
 0.15203203	8.31827995	21.13520012
 32.29370027	5.99914991	26.24520036
 0.15776208	7.74652016	33.14250029
 3.53442001	15.12350012	35.06730031
 0.08382063	14.63400028	8.83255007
 3.26126014	17.94950041	21.00960036
 33.67670046	17.22700014	20.30490030
 32.85530040	14.75800026	29.23080035
 0.27416098	15.03740034	33.04250056
 35.36990040	20.93130039	2.31018017
 34.67990054	21.41430015	9.24614001
 35.15910064	23.53630038	12.39040009
 0.78853988	20.97910038	16.24790021
 0.08027409	20.62730032	27.61340046
 0.30804609	20.14800032	32.67960052
 0.11434336	26.50540024	3.43819007
 35.45830066	26.54160041	8.87631008
 35.10510062	26.79360053	14.75280027
 35.29130038	25.56570039	22.10320043
 0.72190799	25.70190029	27.25290044
 0.36053912	26.82090024	32.70790062
 2.55860994	26.84840045	0.49627402
 0.09144340	31.91410031	8.55141014
 35.18170055	32.56320056	15.31490024
 0.39377685	32.55760062	20.90310019
 0.59499286	32.60220034	26.66970045
 1.04549007	33.58210052	33.14850053
 6.32547010	9.73916008	3.60269007
 6.21244994	2.47345011	8.83162006
 6.07357023	2.58932997	14.92090013
 9.49019029	2.87967005	22.56520041
 35.35670044	8.81996016	26.92800050
 6.06592008	2.79670015	31.71900043
 3.64167990	8.65431009	0.58410689
 6.26558004	8.51208009	8.37200019
 5.91812000	8.48227015	13.95260013
 5.57623005	8.49603999	20.45910021
 11.96800034	11.91060025	29.57080044
 5.92026015	8.83320029	32.46640038
 9.00140004	14.63740034	35.34010041
 6.23957011	17.47900026	11.81730004
 6.09137009	11.01550012	11.54680007
 6.66580009	10.81450026	17.61670040
 5.96917999	15.05800017	26.91290036
 5.89769011	14.85400019	31.82190039
 6.08184998	21.15440032	2.39802015
 5.74054021	20.05150020	9.77743996
 3.19674992	20.62310037	18.38260020
 6.63150011	19.92560039	21.29300024
 6.03683005	20.74330034	27.25400038
 5.87466999	18.54880023	30.65150059
 6.34804014	25.85890052	3.68837995
 6.55483014	26.10710028	8.55473021
 6.23711001	26.55740019	14.61400019
 5.49777010	29.16170054	24.72170042
 6.47964014	26.12140053	27.03890042
 6.14746014	26.28250047	32.44240049
 5.94177008	32.36570030	3.90389017
 8.64564000	2.06802011	35.27080045
 6.34055993	32.05460041	14.23580021
 5.88523991	32.01310035	21.30980042
 6.08650000	32.58720045	27.16080042
 6.77934996	32.39440035	32.75320033
 11.79740020	3.34047020	3.07366999
 12.12910028	2.60538002	8.21052022
 11.62870025	2.64601016	14.53370014
 9.45772010	5.08551011	20.49930018
 12.20160015	2.61994015	26.56020051
 9.99194018	2.60857994	29.43970028
 12.05080031	8.99806006	3.00803992
 11.88490032	11.51050000	5.70898011
 11.55160012	8.83635008	14.18700018
 10.82130003	8.94087007	20.47170043
 11.48510012	8.09355998	26.55330049
 12.00560014	8.87226015	33.00280043
 11.80170006	15.08890009	3.22846004
 9.12895011	12.35890008	8.93914018
 11.41820019	14.60600023	14.28250027
 11.59900016	13.63720003	20.12860033
 12.00860026	17.57730032	28.95570048
 12.24500004	15.11320038	32.57750045
 12.59020012	21.41140028	3.20170994
 12.40320011	24.17110038	5.90088007
 12.02000029	20.78100039	15.07730026
 12.17270031	20.47130013	20.07540019
 14.97820032	20.83180015	23.22970049
 12.54190029	20.07540019	32.08880050
 12.48460009	26.61890034	2.76186015
 12.20640020	26.71690034	9.01459005
 11.55980023	26.79240034	14.79920027
 12.69060015	26.81790047	20.70770027
 12.20080026	24.29140024	29.46540056
 12.77090020	26.60020034	31.89540031
 12.11790004	31.54200047	2.71075004
 12.07980005	32.03010032	9.11926007
 12.40160033	32.61110044	14.97030025
 11.36130029	32.39760062	20.26400034
 11.75170019	33.14150060	26.71250024
 12.55390005	32.80600052	32.78160033
 16.98490017	2.53779005	2.67531990
 17.66120023	2.64410002	9.94596003
 17.71310027	2.17071992	14.59450030
 18.24570031	3.90352009	21.44490038
 17.59980033	3.27456995	27.17320049
 17.53790024	2.83597012	32.74540052
 18.18410026	6.39287023	35.04150049
 17.34350036	8.76044018	8.90797007
 17.96310032	8.76932002	14.03480036
 17.86790028	9.34722013	19.85030019
 17.27960018	8.69403013	26.69260040
 17.94170024	11.90900012	29.60220055
 18.06840030	14.96730013	3.80268989
 18.07410013	15.50590005	8.21767017
 17.18610018	13.72950020	15.07410035
 17.80940025	14.57750033	20.06110030
 17.59430029	14.17620025	26.25120025
 17.81130008	15.06720032	32.17920049
 17.63940021	20.98530042	2.62948017
 17.52470028	20.98100021	7.87649016
 18.73300027	21.12660041	15.02590006
 17.63460016	20.81730046	20.81200021
 17.87790032	20.51070021	26.59260032
 17.95940020	20.49300025	31.85770061
 17.59800040	27.26200035	2.55844000
 18.09450017	26.62290050	8.80152999
 18.29150022	25.90490023	14.06120027
 12.15170018	29.75490058	24.05310028
 17.53760019	26.03510025	26.74090024
 18.01770008	27.13220028	32.18520037
 17.90660037	32.40290051	2.65006009
 20.41440024	32.71880045	11.85400005
 18.19500010	32.36730044	14.84200006
 18.26810042	32.86650063	21.23610035
 17.18680017	33.24250038	26.41640024
 18.81210013	32.54230032	32.31400040
 20.37240034	5.32483002	3.26024019
 23.57700019	3.22343993	9.43913031
 23.97980016	2.80020011	14.55040007
 23.12440016	3.15603019	20.61270038
 23.47650026	3.42137994	26.86050047
 29.95850026	2.87981012	3.27851998
 23.44480045	8.47264019	3.03046990
 24.12030027	8.46907020	9.45533003
 23.63460043	8.74370009	14.55360034
 26.12560049	5.83913000	21.24560019
 24.50770040	9.35739010	27.10030032
 23.61330026	8.87141013	33.32110039
 23.87710035	14.89450021	2.87919012
 22.77600016	14.41980011	8.98634008
 23.85000044	14.39920028	15.08350030
 23.41980017	14.46350004	21.12150032
 23.91260017	14.44240037	26.50380046
 23.50230044	14.78740030	32.41160047
 24.26720020	21.07620025	2.66413993
 24.82280045	20.59090036	8.94215025
 24.03340024	20.92320017	15.10350003
 23.06110044	23.74730028	18.79640025
 23.85890019	20.17480019	26.87410037
 24.12250050	19.95150011	32.96310030
 23.20440016	27.36330052	3.09726994
 23.76950025	26.63940027	9.01091020
 27.15450049	26.83150038	17.68090027
 23.26640015	29.92640050	23.75070035
 23.64520022	23.83610049	23.72730019
 26.72140035	29.89320046	33.05500052
 23.90890042	32.43530031	2.99574010
 23.24900023	32.96470043	9.30475025
 23.47380019	32.91290028	15.04030021
 20.57440024	29.59840054	20.72070043
 23.93890019	0.41423483	29.93770028
 24.11790024	33.10870050	32.71440034
 33.29880053	3.00989993	5.92765007
 30.21620057	3.72691011	9.09396009
 29.63690048	3.21575992	14.72390007
 29.47280043	2.17446020	20.69490025
 28.52430037	3.87895991	26.46180021
 29.78940036	2.99762998	33.17840041
 29.92660030	9.70166018	2.60732998
 32.78060029	5.82105000	9.10503021
 29.77710054	9.22852004	14.81650029
 29.45110031	7.55777994	20.88180037
 26.61910049	11.79060007	26.96260053
 29.73150043	8.42338014	32.94370030
 29.50110053	15.75530035	2.72478011
 30.03860051	15.10160020	9.04232027
 29.47090025	15.20320007	15.41360024
 29.97100058	14.45690006	21.59360024
 30.05140053	15.39920009	26.61870054
 29.53270044	15.38830026	32.81590031
 30.12670037	20.70420031	2.68171013
 29.44810054	17.51030013	11.94720001
 29.58400040	20.64380045	14.84960008
 30.31270034	20.30880021	20.29620035
 28.73100042	20.68230039	27.54540023
 29.75390054	20.68810012	32.96200036
 26.80940031	29.52990047	2.69249016
 29.64050034	27.16610032	8.23937029
 32.04750059	26.93570042	11.71150022
 29.57270026	26.34260027	20.52740013
 29.14620045	26.58600034	25.97820035
 29.57410025	26.45450023	32.86950039
 0.13051997	0.34950989	0.32007394
 29.26450024	33.65520049	8.54011996
 29.84860038	32.88930033	15.56660031
 26.37380024	34.84060053	20.59550026
 29.50670047	32.20660045	26.93730020
 29.77100041	33.04460053	32.25120052
 3.42148020	34.69310050	3.39706009
 3.67300998	35.11040051	8.74352020
 3.57242011	0.54134194	15.14150013
 3.58237003	0.40423088	20.83830023
 3.87234998	0.01393692	26.45450023
 3.53311992	0.63445018	33.23800037
 5.99261001	5.04510999	35.34450052
 2.80645987	5.78916000	8.84515029
 2.96438016	5.30473003	14.70530032
 2.79640010	5.60811010	21.34320026
 5.54124998	11.11180010	30.56430052
 33.08600034	8.42511003	30.28030054
 2.84140013	12.23640034	3.21793989
 2.93989998	11.72700030	8.49586010
 3.64546995	11.84670008	14.54250035
 3.03326987	12.10770020	20.61640014
 34.67140038	11.48630032	30.69610031
 3.06706005	11.89470022	32.63590058
 3.82517995	17.53580026	3.13598993
 3.36006004	16.97540032	8.58239005
 35.49200517	17.44250041	11.60780002
 4.00107002	23.70290036	21.74030039
 3.13990015	21.19010029	30.59990059
 3.09648000	18.12340036	32.98270044
 3.39094005	23.99690038	3.05574001
 2.37789990	23.65210025	9.46611006
 3.50770014	23.52280037	15.07430014
 0.37020890	21.49250022	20.64760046
 3.89628019	20.85110024	24.35040047
 3.55938013	23.54200022	33.18660052
 3.45353018	29.24460041	4.01845998
 3.03297017	29.35650036	9.14344021
 3.08180007	29.04130042	14.16330034
 2.38294987	29.25330036	20.91560015
 2.89115007	30.30870054	27.30830045
 3.20396990	29.56490045	33.47880062
 9.34835028	35.13360051	3.18988011
 9.20618001	34.89100034	8.63127007
 9.02416029	34.87410062	14.85130012
 5.85344021	2.92240016	21.43240041
 8.53238023	35.29990044	26.72440047
 6.91427003	0.27972217	29.77570056
 8.21628014	5.72936024	2.96038000
 9.21817018	5.40499000	8.94248016
 9.20707019	5.71489005	14.71070011
 8.62952026	8.19581007	17.67820019
 5.80735020	8.99915004	26.72660034
 9.11281012	8.66892995	30.12370025
 9.22682996	12.59770024	3.40445996
 9.01615997	14.63740034	12.01110018
 3.70731992	17.40030035	14.70680020
 8.73554014	11.77760027	20.49580022
 9.28620027	18.21740021	26.62620031
 9.55982017	11.90740034	32.80390054
 9.39941027	20.39670028	35.34310053
 12.20110031	21.35100043	9.00875014
 8.30600004	17.16450031	14.40780034
 10.13550013	16.73410024	21.42520034
 9.94360017	20.50980043	23.33370038
 8.66648015	17.44230025	33.15890052
 10.01700019	23.22090028	1.63769007
 9.46686018	23.31870050	8.84130015
 8.95115026	23.90330048	14.55740035
 6.25284010	23.82850047	17.55180019
 8.99289028	23.53960019	26.54780044
 9.53954029	23.10160046	32.22180049
 8.90831029	29.14340048	3.52900991
 9.36532999	29.05630031	9.06096019
 8.81148026	29.28650041	15.46750036
 9.05323006	29.34610038	20.77690033
 9.92485005	32.22480061	29.22100046
 10.04840031	30.18470056	33.27830060
 15.26800039	32.14980045	5.31107014
 14.51570014	34.83040033	9.20530013
 14.45490034	35.27630049	15.59010036
 12.63210012	2.95029001	20.20560021
 14.60650007	31.93070033	29.66910049
 11.94590028	2.85530008	32.56570048
 15.02150031	6.01824025	2.88936009
 14.93560032	5.41321997	9.27922025
 14.50140024	5.37914005	15.42340013
 14.50580034	6.61779000	20.19130031
 15.18160020	5.62259024	26.17870037
 15.32180026	6.19348011	32.54370031
 17.55740013	11.68410026	6.31067996
 14.49230034	11.94060003	8.75523023
 14.44270006	11.68310022	14.58020005
 15.18550011	11.53030030	21.05510022
 14.39350009	11.67130025	25.84070037
 14.09710004	11.83880001	32.45690054
 14.81430006	17.85130025	3.29629993
 14.33970021	17.95720033	8.49953995
 15.91640029	17.74670027	15.12900016
 14.97990035	17.65400015	20.77250023
 15.17020017	17.70330038	26.33500026
 14.90310027	18.05450034	33.31020056
 15.00480003	24.30760032	1.68877992
 14.84150022	23.88220045	8.76247012
 14.62200016	23.88870018	14.66010015
 14.91090008	23.06100018	20.69280028
 15.37560014	26.51400030	24.02180042
 15.59920026	24.15970035	31.87350039
 15.04350012	29.52830034	2.84931015
 14.88360038	29.18670047	8.12133998
 14.87160025	29.33090034	14.97120004
 12.21100010	26.16380038	26.45340030
 15.38960034	29.21060047	26.81190023
 15.30390015	29.39660044	32.38230033
 20.17870045	35.07510048	3.13915003
 20.41640032	35.29230042	9.32257997
 20.27910013	35.37800061	15.34320034
 20.36840018	35.35310058	20.68620030
 20.79610018	0.61580813	27.35790038
 17.84150036	0.12552688	30.18720048
 17.94610035	7.82220999	2.93781991
 20.92290013	6.19444993	9.03989998
 20.52050011	5.69286997	14.60420030
 20.55310042	6.01111021	20.23750017
 20.32300021	6.15555004	26.71230044
 21.21960022	6.16730025	33.22300049
 20.61530020	12.22590009	2.63597990
 20.36770018	11.20410027	9.67604024
 20.63600028	11.38820005	14.93490033
 20.38640018	12.35310034	20.78540014
 23.30440024	11.47480003	23.85580018
 21.24210023	11.85870020	32.48480034
 21.49450030	17.82080028	2.96694016
 20.88890019	18.65730013	8.77177017
 21.02070034	17.87220013	14.76190017
 20.25180042	17.71920041	21.34040029
 21.00550030	17.17480040	26.03040045
 26.54450028	17.47930031	32.50870033
 21.23170024	23.21390036	2.74978999
 21.32350022	23.52980030	8.80543025
 21.90340040	21.70590015	12.39140013
 20.54990014	27.23750025	17.47290013
 21.29980037	20.96240046	23.56740045
 21.23320013	23.40650031	32.24670052
 20.34700010	29.68760034	2.92558017
 20.85560024	29.71650054	9.62348997
 24.00230017	27.09220045	14.69860009
 17.42860010	29.84510042	23.92450040
 20.24610023	29.56110044	26.24910027
 20.94510045	28.89990052	32.79300036
 27.87770040	35.46080058	2.27158993
 26.33580050	0.61744985	8.52857026
 27.59900031	35.22980059	14.69080028
 23.32210021	32.64860034	21.54620020
 26.66870041	0.40660495	27.20100040
 27.02250055	0.26197884	32.60950031
 27.34910052	6.30891025	2.62058006
 27.02500047	6.01424009	8.38303014
 26.64180029	6.11056993	13.86530016
 26.59510024	8.92346021	23.65380028
 23.62320041	5.86569025	30.01970036
 26.32880022	6.07349024	33.28840054
 26.64530025	11.43150004	3.51067004
 27.21150028	12.31180008	8.79071014
 26.92420049	9.58991024	12.05400022
 26.27730047	11.16220026	21.49210027
 27.19040026	14.29210037	23.90770023
 27.21920020	11.98650019	32.15820036
 26.65880026	18.22530028	2.71396986
 26.85880044	17.31790033	9.29372030
 26.75310051	18.16740034	14.90300037
 24.78060039	19.78730016	20.87560033
 26.89200048	17.51350040	26.82610023
 26.31670020	21.57570013	0.12740396
 25.96960029	24.42310050	2.99453991
 26.91960024	24.12430043	8.84426010
 26.57620044	23.69120028	15.04750028
 26.25560035	23.80760024	20.29610045
 25.90360050	23.85430030	27.37600028
 26.50010035	24.18570032	32.67750054
 26.27800047	33.00330062	6.44365008
 26.22010053	29.07500031	9.59896997
 26.67330031	29.81760056	15.09210036
 26.24100041	30.26830042	21.63560015
 23.82920047	26.90910035	27.24010043
 26.69150047	33.06670060	29.65230032
 32.60420042	35.44054417	3.30250992
 32.62960029	0.31183188	8.69883018
 32.87600048	0.01834343	15.66210004
 32.01840060	35.49100051	21.04560038
 32.18170041	35.05620033	27.07570033
 0.03209975	6.19095992	29.54950026
 32.76320037	6.78097000	3.45539019
 35.46730066	3.32165004	9.08143026
 32.31650033	5.75711997	14.31650021
 30.19080034	4.04561997	22.79820048
 33.10280051	3.32730011	29.20870029
 32.29060061	5.47431022	32.23420056
 32.71290046	12.75040027	3.36103021
 32.04100051	12.13170010	8.82468022
 33.32740032	11.02270019	15.41450038
 32.59930047	10.32740009	19.98050020
 32.57320060	12.95160028	25.95530040
 33.28180056	15.06760027	0.59845798
 32.93980040	18.45570017	3.10323000
 32.69720058	17.85740039	9.09979004
 0.19819918	17.25190018	17.22220009
 29.80980039	17.81900035	23.40950043
 32.41640052	18.78200010	26.02080035
 32.32620032	17.40550035	33.89870045
 33.05360054	23.62560043	3.02199000
 29.55490040	20.05380033	8.98138005
 30.22100027	26.20700047	14.82800021
 32.11860048	23.66150019	20.84940021
 32.89410038	24.33650016	27.58980051
 32.88420059	23.92380041	32.92750058
 32.16080054	29.75260045	2.92965001
 31.73460042	29.88870045	9.38860998
 32.58100041	29.66390050	15.59670034
 32.92270053	30.42140039	21.56940020
 32.25320060	27.03060041	24.00680017
 34.07310059	29.65420050	32.50040032
 3.72709000	2.47743996	1.11331006
 6.26003023	1.86692000	3.36892993
 2.51678992	2.25578020	11.61870020
 2.69741996	3.04945999	18.30970038
 35.47150062	0.20062693	24.00910030
 6.37933005	2.79502998	26.14960038
 3.18027005	6.11069009	32.09920049
 2.87543988	8.83431018	5.48428005
 2.91281002	9.04173013	11.67050000
 2.86913995	9.11563995	18.25040011
 3.18286987	8.37994008	23.89840017
 5.94823994	6.22810005	23.30880035
 5.91485005	11.98680024	35.33550051
 3.14402012	14.62300020	5.87475993
 3.34280019	14.42460016	11.57350003
 3.06641019	14.39780029	17.43110038
 2.63157019	15.20200024	23.55000018
 2.32280989	15.12280013	29.61080026
 3.21915003	20.62120019	0.25968084
 3.28119019	21.17680043	6.56911013
 2.91482005	19.42970036	11.98290033
 6.01824025	13.94460016	20.55940035
 33.35770050	20.52040021	22.68440034
 3.48444005	23.46290036	26.94710045
 35.30692098	23.63550022	35.37190048
 2.69587991	26.09280038	5.76180021
 2.70774992	26.38990042	11.96630031
 3.17764997	26.14820039	19.21670038
 3.35875995	26.09230019	24.17350040
 3.02645018	26.39890043	29.59690031
 3.24585995	32.65550037	0.25552212
 0.80260194	29.67080052	6.29584005
 6.80929001	31.70760040	9.07989021
 2.56132992	32.76050030	18.12510039
 3.41225018	33.36720035	22.91740041
 3.16856002	32.76710028	30.02320032
 9.72596012	35.24910033	32.68610060
 8.46917009	2.56376016	6.36163009
 8.66197019	2.79075999	11.68140019
 8.84242995	2.54306008	17.43940039
 3.28619004	2.87744991	24.02890024
 6.14288015	5.40535013	29.42080048
 8.98040027	8.90035015	35.44790031
 9.01712019	8.62822018	6.06431995
 8.96116026	9.17573016	11.26910002
 5.82142008	13.83640031	13.60790024
 8.84788022	8.58116995	23.45680022
 8.40967002	10.47480022	27.17390048
 11.63590032	17.72170033	35.40130051
 9.19456027	18.08840038	3.01777013
 5.89591009	14.14790015	8.99073023
 8.52230019	13.98290031	16.86600029
 8.33598027	14.32710035	23.66800028
 9.14991007	15.07060003	28.89690040
 6.58259022	21.39760023	32.70740042
 8.73732017	17.44540027	9.33588018
 9.66118007	19.99150029	12.07360001
 8.72870020	20.15030045	17.94560015
 8.82701021	22.81050030	21.39180014
 9.19898029	20.25160027	30.01580045
 9.04919008	26.60060028	35.40670066
 9.32781018	26.68300030	6.49628994
 9.41588018	26.74830046	11.50440022
 8.82819013	26.21320051	18.10440031
 9.99751026	26.43650023	23.23710036
 9.23729003	26.94070026	29.70170044
 8.84436995	32.27230055	0.74210503
 9.82467007	31.64440058	6.89733014
 8.80899029	31.11610040	12.33170027
 8.62621014	32.35860048	17.53240020
 8.69195006	34.89180058	20.56880030
 12.07750028	29.08070050	29.46000041
 15.09010028	2.80600020	35.25740034
 14.82540004	2.16442994	5.35978023
 14.98830026	2.91922016	12.71650023
 15.45540034	3.49600006	18.77780015
 15.09330019	2.96400012	23.52130049
 14.95080036	2.18070005	30.15020042
 14.55510022	9.26961020	0.09714359
 12.00360006	8.40742998	8.93991021
 14.92030003	8.73141022	11.55070033
 14.03600019	8.65188021	17.16310033
 14.19190013	8.71420015	23.36490035
 15.02520006	8.94944027	29.84500052
 15.28640034	11.36380022	3.43463003
 9.99396017	15.80030037	6.30051993
 12.44980026	14.92700026	9.28182007
 14.16030022	14.59650002	18.00300024
 14.29730036	14.39940007	22.75320046
 14.93510012	14.74480030	29.80390041
 15.13800017	21.23350017	35.15710056
 15.25350034	21.59410044	5.26182999
 15.52840006	20.88920024	11.56200011
 14.87540026	20.31880026	17.43840035
 23.96470037	27.05930045	21.63510030
 18.29750011	17.27170012	29.16290037
 15.27940006	26.58870041	35.04680038
 15.13210018	26.41160019	6.50898010
 15.14200033	26.86360049	12.01080013
 15.12840007	26.50950030	17.36590012
 14.79280009	32.74550041	23.06570034
 15.45290006	23.24950043	26.56410042
 15.15130038	31.79240045	35.42466405
 17.89330016	31.69860040	8.65177000
 15.60940010	32.80260046	11.79640016
 15.49760004	32.69120034	18.34430041
 12.39050035	35.23390065	23.23470034
 14.96960026	0.18678600	26.90010035
 20.85910021	2.43669002	0.25865414
 20.80510018	2.83242003	6.50207012
 20.38320027	3.18674987	11.79490028
 20.31870036	2.84210012	17.62170025
 20.63090018	3.39234999	24.15060045
 21.09780012	3.32879003	29.99170031
 21.13240015	8.68075018	0.26932396
 19.99550045	8.87624005	6.09253011
 20.17650022	8.40662013	11.72440013
 21.01030035	8.97785022	17.35810030
 20.04110021	9.03378029	23.35680049
 21.30180045	8.57777024	30.00340038
 21.08470041	14.55580021	0.14515404
 20.71200012	15.18640025	6.28627016
 20.43700015	14.41980011	12.16770011
 21.46350013	14.87160025	17.74940034
 20.64980034	15.26210004	23.60900041
 20.76190044	14.83030034	29.15460036
 20.70880021	20.63480045	0.34886393
 20.77170034	20.68860032	5.77394005
 18.43840016	18.07410013	11.03090031
 21.43960013	20.42690020	18.14920018
 20.65080038	23.60520040	26.44510028
 20.57240016	20.54070035	28.94880045
 20.87340046	26.53860029	35.45740052
 20.80450044	26.74490040	6.88644027
 21.22030021	26.95310033	12.17410030
 17.87820037	26.89690043	20.39670028
 19.77350010	24.38590029	20.87700032
 20.49540028	26.48180029	29.23260028
 17.77630010	35.22160047	35.06670057
 20.85360016	32.44250039	6.38045025
 21.26460024	29.83560057	15.37430005
 21.38660014	32.56440039	18.49680029
 20.67090036	26.38590026	23.44150029
 21.26210032	33.88910035	30.05200026
 23.84370016	2.60598012	3.09351010
 24.00680017	5.45972023	6.44264009
 26.95510041	2.89968010	11.45690028
 26.25380042	2.79695007	17.84540027
 26.08500021	2.67880991	23.95440028
 26.67110043	3.46154010	29.59090042
 26.39930037	8.75481002	35.49720054
 27.58200034	8.86530004	5.86461022
 29.80880035	9.27298005	8.75717023
 27.26620030	8.59241000	17.86610035
 26.05740046	6.48288023	26.42280042
 25.80180048	8.97619001	30.72850047
 26.36800051	14.86500027	35.36970060
 26.65980030	15.40670021	5.15237023
 26.51910040	13.64390026	12.69120025
 26.91430034	14.25340028	18.09790023
 23.27300048	11.66810033	18.43820036
 27.12660034	14.93550007	29.43590027
 26.51480019	27.34730024	35.47330055
 26.85650031	20.74350014	5.40887000
 27.14170048	21.26950019	11.59610030
 26.99840040	20.19320014	17.76730010
 26.68570038	20.29040026	23.89000027
 26.70650036	20.08040039	30.25430057
 23.49850043	29.65290041	35.20300037
 26.48780053	26.68060028	5.53930002
 26.74380046	27.02320054	12.27960007
 29.05210035	23.20240043	17.80140029
 26.12870050	26.93380024	24.36300033
 26.66520045	26.45050043	30.21430039
 27.03470047	32.18220061	0.16240784
 29.95570029	35.30810056	6.05251002
 27.03110025	32.70070054	11.82440022
 26.70640046	32.39570044	18.23120026
 26.67110043	33.15230054	24.28620025