Mg
  1.000000
15.86011500	0.00000000	0.00000000
0.00000000	27.47052700	0.00000000
0.00000000	0.00000000	51.41204800
Mg 
979 
car
 1.25686860	0.97548226	26.30795009
 1.52284669	0.38206943	31.39934278
 1.30961093	0.21449180	36.39030616
 1.63991416	0.06069421	41.63820227
 1.47418151	0.17915948	46.86024017
 1.13843541	6.19318169	26.47084505
 1.69174629	6.23205578	31.39750275
 1.03543966	6.13059971	36.51901468
 1.45128712	6.11467834	41.64246330
 0.93927059	5.71673781	46.14880899
 2.06826447	11.59412354	26.20306591
 1.50315778	11.13807544	31.33319707
 1.41011775	11.51199821	36.34256081
 1.44090525	11.39065017	41.44121700
 1.75709805	11.50260411	47.11726957
 0.99274994	17.00627063	26.15009094
 1.34452396	16.84289132	31.21940267
 0.93532411	16.59893600	36.12155841
 0.89618753	16.88966813	41.48160168
 1.65644579	15.95335994	46.72426816
 1.09135862	22.48650066	26.27211692
 1.67270622	22.27799085	31.39217594
 1.83721875	22.51865354	36.32600048
 1.10316410	22.34539583	41.62106046
 0.88346788	22.47061775	47.30272979
 4.47794043	0.74480565	26.25449081
 4.50159024	0.59684417	31.49628586
 4.56310687	0.48708541	36.23670804
 4.64208485	0.43178257	41.84051330
 4.57928989	0.95661852	46.89510474
 4.95208919	6.03316285	26.10292707
 4.72065617	6.23974533	31.08236540
 4.68361250	5.77870940	36.53712457
 5.07050287	5.63419575	41.25072097
 4.87297561	6.03423804	47.03679069
 4.43253895	11.25535618	31.41619411
 4.77367939	11.00491206	36.17559813
 4.59940480	11.07028312	41.98297403
 5.09704842	11.19153446	46.97713318
 4.01689497	16.90613177	26.45321946
 4.32376155	16.75388983	31.42558812
 3.97077677	17.06282887	36.40308976
 4.43130899	16.75224352	41.49554771
 4.88955577	16.82003556	46.67594186
 4.06777787	22.74207738	26.01808999
 4.90277518	22.17591504	31.20574763
 5.02056905	22.75660435	36.53296019
 4.17414389	22.22830903	41.41778031
 3.90958956	22.03277656	46.65870340
 7.23853825	0.55935212	26.65039803
 7.51283545	0.00770686	31.68329564
 7.87040095	0.46322753	36.59397344
 7.32038294	0.31092241	41.44160465
 7.94577614	0.68995085	46.28449001
 7.63330222	6.07295693	26.25671850
 7.92322068	5.95933718	31.38549392
 7.98716819	5.76378549	36.46778308
 8.07939476	6.73462880	41.57379942
 8.34634127	5.88895906	45.98494491
 8.10043938	11.21690816	26.48847116
 7.48117644	11.55887172	31.33716762
 7.71092448	11.03570899	36.20629832
 7.79865724	11.47045123	41.63190686
 8.10183396	11.68787056	46.87360473
 6.91698012	16.32495843	26.57069342
 7.20955214	16.62527832	31.25630110
 7.18065327	16.89518833	36.48521537
 7.42831785	16.87785278	41.46639708
 7.73164952	16.75359919	46.13834921
 7.55361735	22.07287090	26.48372582
 7.55462447	22.59419337	31.13989188
 7.93767020	22.26733778	36.87657056
 7.21684478	22.58944784	41.41322880
 7.28412371	22.40631200	46.62170832
 10.58798930	0.36619449	26.22214441
 10.90593497	0.17707914	30.79618538
 10.76773564	0.20553064	35.08946926
 10.51089979	0.71388538	41.35173125
 10.89305449	0.34310743	46.36109551
 10.58837677	6.17050037	26.21420330
 11.11667212	5.98460430	31.40418528
 11.04335969	6.10318275	36.55697836
 11.58879682	6.02800114	41.38766107
 11.10417895	5.96947683	46.40186783
 10.93983121	11.41980080	25.97334660
 11.36605086	10.98418692	30.74224180
 10.66808098	11.65717060	36.33762166
 11.39704153	12.27340210	41.38833920
 10.82448741	11.66956668	46.54810529
 11.29574059	16.42412895	51.05618203
 10.64096415	17.07909911	26.57824739
 10.44088008	17.27482497	31.46500419
 11.07706212	16.97518306	36.34469133
 11.25099762	16.56649249	41.15193786
 11.41428020	17.09285113	46.44380207
 10.53743566	22.52446411	26.42619934
 10.62082006	22.88850875	31.44999342
 10.86826196	22.50790350	36.48269720
 10.06889424	22.08613888	41.78134061
 10.51700117	22.56533338	46.86992466
 14.10146869	0.95125820	26.11880979
 14.23511617	0.52650864	31.32486832
 14.03135207	0.16175223	36.20513641
 14.59005713	0.10375618	41.75238380
 14.25680979	0.34964542	46.41290806
 13.87513929	6.34015533	26.54900010
 14.08326159	5.84647260	31.54587072
 13.98748077	5.87669842	36.64472073
 14.46580360	5.58493010	41.44722142
 13.67166560	5.86108692	46.59158909
 13.99803695	11.82248686	26.05634415
 14.39491222	11.44720814	31.35944241
 13.72057296	11.43887935	36.09318205
 14.18708048	11.54444172	41.61786417
 13.82332668	11.43452143	46.71671419
 13.66595167	17.39588264	26.53389216
 14.05178656	16.78536474	31.27925349
 13.93295639	16.94729141	37.08488601
 14.12258104	17.35791892	41.18360666
 14.53020629	17.05362844	46.45803807
 13.82477930	22.54809480	26.26078622
 13.83727248	22.16526197	31.61986140
 14.55645161	22.18705242	36.18324927
 13.81615997	22.76270555	41.90356041
 13.69752361	22.35808254	46.88551691
 15.32579692	3.58202706	26.76777533
 15.34090479	3.30744898	31.37513131
 0.09062977	2.87334598	36.66873838
 15.60236402	2.80968907	41.79925719
 0.37336011	2.82798334	46.72678632
 15.09762744	8.97940516	26.08946534
 15.59609436	8.66670843	31.19431976
 15.35078311	8.98788889	36.92654307
 15.31039834	8.33210505	41.41719935
 0.18786322	8.58010869	46.45881285
 15.65914117	14.41457255	26.12723520
 0.15227407	14.14156331	31.37387223
 15.17975302	14.41495988	36.56424185
 0.08344815	13.91804250	41.64023561
 15.53604971	14.07909753	46.75303166
 15.51910175	19.58198938	26.49486322
 15.72806337	19.66731091	31.60271959
 15.57875894	19.42422724	36.22799215
 15.78320090	19.92724583	41.45913359
 15.67341797	19.87514248	46.67691046
 15.62412331	25.19896605	26.08462284
 0.14237736	25.30588409	31.36893307
 15.80799803	25.01670157	36.58380465
 15.82264548	24.91414146	41.65795889
 15.48452765	25.24264364	47.31483578
 2.89580466	3.32353517	26.21914246
 2.33923009	3.11448309	31.42810628
 2.92207901	3.04729128	36.44134392
 3.30461134	3.18806674	41.57176556
 3.14307210	3.54212639	46.70431771
 3.41570352	9.03239938	26.10457328
 3.08492559	8.73065597	31.15761516
 2.88729191	8.69244035	36.31195779
 2.66836158	8.73521745	42.06393772
 2.90508251	8.96108177	46.54490952
 3.24012158	14.42338537	25.83534124
 3.02811577	14.13613980	31.49376769
 2.69182741	14.29932572	36.62070308
 2.89621132	14.08229345	41.64042944
 3.48100675	13.87368694	46.74441243
 2.71514796	19.69045703	26.24470967
 3.18658496	19.33667812	31.27654202
 3.46828123	20.27269567	36.26585867
 3.05284058	19.50567460	41.29527002
 2.84069917	19.20554866	46.50016613
 3.00067920	25.44040314	26.08220184
 3.28031269	25.19102459	30.96489144
 2.76903302	25.27034162	36.23273748
 2.92369626	24.86320066	41.57680189
 3.02580115	24.65614349	46.98032946
 5.95694484	3.20367851	26.04491628
 5.78932373	3.36338721	31.68949387
 6.35596044	3.05135884	36.23796712
 6.07327641	2.91741117	41.30853793
 6.23083523	3.73510190	46.38278882
 6.44379010	9.02167846	25.73549287
 6.12621255	8.90660579	30.81477957
 6.41023296	8.62180099	36.55862457
 5.72711941	8.44880479	41.69108007
 6.53380863	8.62287591	46.31586833
 6.04913271	13.91116635	25.75873574
 6.18325489	14.01546974	30.96276041
 5.58541419	13.69636194	36.62167117
 6.14958148	13.97092051	41.61941373
 6.35487576	14.32256853	46.82227649
 5.75964041	19.30123262	26.28780633
 6.03679449	19.36844366	31.49870685
 6.02839799	19.47303742	36.30827720
 6.03892514	19.60726611	41.50397363
 6.49138996	19.67961029	46.51120686
 6.17296008	25.14037416	25.91049383
 5.99862745	25.45812602	31.51274954
 5.87837367	25.30733673	36.56230465
 5.70141650	25.24206236	41.75441714
 6.56144853	25.18104949	46.44680402
 9.21110912	3.56868160	26.57485779
 9.06841599	3.29344505	31.48631038
 10.05126826	2.87950542	37.03249250
 9.63958520	3.30755556	40.88096244
 9.55831194	3.18900623	46.66228682
 9.19880960	8.83251861	25.94981325
 9.67825596	8.42981332	30.95927416
 9.48168744	8.68979658	36.58700043
 9.71685869	9.27189952	41.45729355
 9.83239614	8.74219991	46.41775056
 9.75191700	14.02031197	26.01508753
 9.05528365	14.05856633	31.51759204
 8.30847445	13.86748876	36.71890472
 9.20507562	14.34813590	41.94617277
 9.48609386	14.36440615	46.24613920
 9.15665247	19.50044504	51.33230226
 8.97317758	19.77587526	26.28693439
 9.06471661	20.07367692	31.33038843
 9.38532551	19.67806068	36.63736058
 8.93097207	19.26849847	41.43366303
 9.33136289	19.73452195	46.38472603
 9.18095127	25.07945799	26.35492065
 9.05377298	25.22918198	31.57124462
 8.96589477	25.31692449	37.09069711
 9.25853467	25.09553429	41.65728076
 9.49729903	25.44602031	46.51304690
 12.06673219	3.42788691	26.39375577
 12.34438999	3.29690249	31.23819069
 12.80731439	3.31307577	36.53722174
 12.72993431	2.68534840	41.38649916
 12.53488630	3.15443210	46.52679911
 12.15215048	8.85295311	26.32121800
 12.72857843	8.50238001	30.88944786
 12.29025307	8.83476542	36.36774089
 12.48781903	9.09618210	41.43811789
 12.68741890	8.56624020	46.45358321
 12.55319014	14.44362620	26.01944573
 11.89618631	14.57126938	31.37406605
 12.15292525	14.17700908	36.42352451
 13.25658339	14.53030341	41.93939358
 12.89234522	14.22378562	46.32894241
 12.42167315	19.79698773	26.41496478
 12.69594133	19.31004544	31.42132709
 12.65148892	19.74759627	36.43320900
 12.11302469	19.25542442	41.45274204
 12.58466518	19.52097624	46.11171674
 12.34758596	25.32157305	26.37409580
 12.81254394	24.89961477	31.01447631
 12.45101754	25.06560900	36.01221887
 12.77303085	25.42452050	41.66531904
 12.61410631	25.12904312	46.53435308
 1.08033743	4.35659236	29.16084216
 1.48777871	4.30516726	34.19025352
 1.43320595	3.87137412	38.93977923
 1.36883228	4.14290160	44.00328038
 1.50002969	4.47022199	49.28313576
 1.30413919	9.74339486	28.54257681
 1.54605099	9.93747441	33.99559260
 1.52307904	9.73913363	39.08136853
 1.39983278	9.86009433	44.19048398
 1.40015236	9.74087691	49.37581729
 1.20973360	15.18420826	28.59961899
 1.39425446	14.76457426	33.77710785
 1.44709370	15.20202812	39.43069231
 1.71324610	15.10334190	43.96153996
 1.40622457	14.84611859	49.37368677
 0.95764707	20.97337734	28.85258118
 1.38405657	20.32576735	33.80771138
 1.67279345	20.10534577	38.65892601
 0.95666406	20.71150547	44.17450409
 1.55005075	20.48246446	49.77259594
 1.35947704	26.38116622	28.81045312
 1.14380073	26.20974848	34.10686883
 1.62589097	25.38132722	39.14538372
 0.85526907	26.21962688	44.44044370
 1.20194708	26.08133064	49.70654688
 4.34377956	4.61661463	29.01673522
 4.36844632	4.05186620	33.98261517
 4.61607204	4.21099389	38.98394115
 4.52165677	4.02590188	44.03950068
 4.87876709	4.17495751	49.10426090
 4.39155371	10.08468044	28.62218425
 4.76539899	9.39172733	33.89894052
 4.93818209	9.52897750	39.32299950
 4.35542041	9.50104712	44.41390789
 4.63375607	9.68761156	49.45348804
 4.45983991	15.29635614	28.55749093
 4.49562462	14.97899134	34.05495963
 4.40125772	15.08978327	38.83954373
 4.65066549	14.75518016	44.25140006
 5.06263911	15.15602625	49.39140953
 3.96718382	20.94703502	28.48824610
 4.42570165	20.61310989	33.92741302
 4.74189445	20.16539030	38.87770124
 4.16541813	20.58250635	44.01044722
 4.41070988	20.56594574	49.29272359
 4.00389824	26.82888581	28.76541976
 4.32855543	26.39811416	33.80867998
 4.28416107	26.29293940	39.05202407
 4.05163370	26.35821377	44.46639856
 4.11552300	26.20384095	49.18764559
 7.25546702	4.25418745	28.50809938
 7.38283897	4.43457294	33.93583894
 7.60248586	4.21198173	39.21365995
 8.04963389	3.87143236	44.12811500
 7.95339804	4.39268698	48.88064317
 7.53574919	9.40655455	28.64978533
 8.11568302	9.16989157	33.74689196
 8.05325602	9.61824051	39.32532384
 8.16983928	9.72925523	44.30941085
 7.90952674	9.91674927	49.00915787
 7.66394444	14.89860928	28.86342809
 7.53203998	15.08881493	33.67086793
 7.65108315	15.09704675	38.88196227
 7.95240044	14.95797583	44.16172048
 7.85978656	15.24076650	49.04605630
 7.19821153	20.60671805	29.02690401
 7.60457765	20.58996350	33.89051460
 7.67746407	20.23938079	39.06412955
 7.79457041	20.95604179	43.70664109
 7.32670685	20.72148057	49.12740712
 7.16655252	25.91882297	29.02196485
 8.33061343	26.10738231	34.26511563
 7.15984115	26.07213021	39.13076008
 7.40549117	26.30107453	44.01277156
 7.99312430	25.81635982	48.95153473
 10.52784791	4.12811312	28.97015231
 11.84495465	4.34181376	33.79996359
 11.67779839	4.19729984	39.19758392
 11.48275038	4.39659961	43.58732658
 10.88995543	4.69912730	49.15607345
 10.55525530	9.77457940	28.49463816
 11.41408639	9.17938263	33.31679830
 11.32808714	9.72480033	39.13734545
 11.09507540	10.05029998	44.07029804
 10.87068301	9.74998037	49.23238847
 10.66159229	14.91003702	28.90516851
 10.42654682	15.46670829	33.93244935
 10.71272705	14.71082460	39.04427628
 11.20267138	15.00969157	43.92057382
 10.90254534	14.87371988	48.72181593
 10.80463404	20.43287906	28.79282701
 10.91145524	20.35966351	34.08275401
 10.72163694	20.45563812	38.94956089
 10.84221030	21.07564681	44.24268418
 10.56842633	20.50677285	49.54229567
 10.71398602	25.88637945	28.56339869
 11.36856881	25.48834195	33.52269327
 10.90322336	26.34058758	38.90142841
 10.52106866	26.21226671	44.04473083
 11.36701928	26.07745674	49.13176532
 13.61288008	4.46615443	29.16878378
 14.67421645	4.50160020	34.18676676
 14.59480264	3.46051421	39.07129639
 14.51316127	4.05062645	44.20975630
 14.28528250	3.99233482	48.91986594
 13.94816133	9.73709999	28.43275348
 14.20180120	9.61048338	33.80587134
 14.31452998	9.84246841	39.26024338
 14.01421030	9.70359116	44.26612087
 14.11744823	9.78358589	49.14290271
 13.78323231	14.83449719	28.95659392
 14.32557052	15.22042870	34.00198466
 14.44924294	15.28909265	39.33278064
 15.00969119	15.38438929	44.01490207
 13.92365919	15.29335388	49.31015587
 13.60009635	20.68148321	28.84105665
 13.86729472	20.50996878	34.01050723
 13.97876469	20.37748309	38.49883918
 13.50247560	20.88408521	43.74596051
 13.61142745	20.55761695	49.46830550
 13.93934818	26.60391209	28.55594137
 14.26097418	26.06157411	33.63154851
 14.04733161	25.79301976	39.18044211
 13.94428733	25.97509057	44.05644917
 14.24373550	26.21449402	49.52089283
 15.78875828	1.38421156	29.05150313
 0.11566227	1.37194103	33.72684486
 0.01209921	0.67532610	39.17414722
 15.60844590	1.29159770	44.26776709
 15.27582424	1.31234207	49.19781438
 15.79619398	7.38281017	28.56194579
 0.27850806	7.25468268	33.42071439
 15.56792363	6.74175685	39.07284595
 15.81017626	6.76951280	43.78198698
 0.06550085	7.02682318	49.12362988
 15.58138522	12.12116016	28.78149631
 15.59657857	12.39533141	33.97244638
 0.07462073	12.34816726	38.89900742
 0.06514146	12.97824802	44.20530145
 15.54970511	12.49198371	49.19093802
 14.94199578	18.13326878	28.99329852
 15.54952669	17.69736453	33.80838951
 0.12213748	17.85047811	38.84361145
 15.75537115	18.00572229	44.05489962
 15.80353864	17.80331396	49.16779180
 15.23921640	23.40314875	28.91998597
 0.02560980	22.94351738	33.76490520
 15.64388089	23.14398877	38.82104619
 15.26362163	23.43036270	44.40151142
 15.33945217	23.12287630	49.53115827
 2.78123563	1.97817820	28.85645508
 2.88706907	1.40544985	33.88170154
 2.89022634	1.04556012	39.02461682
 2.77176413	1.46406124	44.26108455
 2.40755499	1.61744595	49.06281097
 3.15031621	7.38024360	28.52591931
 3.22716354	6.60333451	33.98590811
 2.81709773	7.03149125	38.92883566
 3.11630372	6.62229714	44.34747170
 3.01385039	7.09112894	49.27606609
 2.92700849	12.89437941	28.84008805
 3.31342433	12.52597684	34.04275698
 3.44215216	12.02053700	39.00340730
 2.96312229	12.26497661	43.92473819
 2.81388257	12.23398574	49.52776868
 2.15966774	18.14643979	28.84154044
 2.46987557	17.53514722	33.85051757
 3.05750853	17.53844011	38.93861732
 3.11333058	17.92349999	44.16830637
 2.89290892	17.61485158	48.79086694
 2.63718677	23.68100022	28.87049776
 3.02389333	23.27105067	33.79434682
 3.24667799	23.21778532	38.67209675
 2.53743537	23.57185487	44.06167881
 2.78202008	23.64264916	49.52776868
 5.98769348	1.39076795	28.97819058
 6.39354637	1.25763369	34.14928737
 6.10259177	1.24425912	38.91924783
 5.86340125	1.37380051	44.16995258
 6.75951805	1.12506093	49.20895177
 5.96609676	7.13716954	28.60843205
 6.27223695	6.85707126	33.75551119
 6.68628317	7.08193840	38.97938964
 6.19070232	6.65537962	43.97190206
 6.53511598	7.21530506	49.02329773
 5.80379244	12.60781181	28.75941535
 6.28818763	12.41160165	33.91889045
 6.26432466	12.20899965	38.91033812
 6.12950527	12.07564232	44.37148935
 6.48600545	12.43058351	49.23771476
 5.49701309	17.82374846	29.01712287
 5.60427980	17.31985850	34.04014217
 5.94802543	17.71489347	39.03062124
 6.53092256	18.15689920	43.72746297
 6.12053733	17.82239279	49.11956267
 5.59622223	23.39772551	28.67912978
 6.24040364	23.74298169	34.01225010
 6.00147465	23.47801088	38.88883863
 6.07102950	23.42426122	44.00967244
 5.77562963	23.74937353	49.29959944
 9.12685305	1.36079404	28.51923677
 9.45800845	2.68197832	34.37426084
 9.01591583	1.18059260	39.07826941
 9.13449414	1.26773460	44.11852717
 9.64243256	1.48685876	48.95986348
 9.38641018	6.78381697	28.81326176
 9.67059537	6.74959172	34.09563479
 9.86619547	7.14986614	39.23118940
 10.03945311	7.37965298	43.67497229
 9.69923271	7.19666218	49.57948457
 9.28464439	12.25209596	29.11290351
 9.38517055	11.73823063	33.45945285
 9.09556200	12.31252810	38.94113548
 9.60377163	12.44423856	44.02855711
 9.51972856	12.26013438	49.53696938
 8.94616717	17.67528345	28.58402675
 8.94739712	18.07990645	33.50952202
 9.21018908	17.46154434	38.73998584
 10.01950283	17.39772261	43.58567985
 9.60841055	17.46299698	48.20824094
 8.87348423	23.26785475	28.97073326
 9.22657543	23.25080984	34.01573687
 9.38630360	23.07425951	39.21336947
 8.90008783	23.54832114	44.01848549
 9.09861269	23.15745043	49.17650820
 12.61323479	1.58590319	28.97925584
 13.25513060	1.80360355	33.95191498
 12.53759791	1.22992609	38.81262027
 11.97685910	1.36439680	43.90062337
 12.63909265	1.48803065	48.75774576
 12.09084702	6.77896513	28.63458073
 12.85534992	6.92214234	33.93738850
 12.80683002	7.30331870	38.99546568
 13.03955120	7.07231190	43.67506895
 12.76741367	6.94617960	49.18609603
 12.26584784	12.51309618	28.39401502
 12.12048180	12.43620041	33.36793324
 13.09920838	12.49605127	38.69233767
 12.72567302	12.46903126	43.95911846
 12.37712399	12.37421893	49.23083891
 12.14149740	17.85251175	28.86207184
 12.64790564	17.65940081	34.05883353
 12.26371719	17.70259409	38.99594998
 12.95122764	17.55422605	43.79021908
 12.51910041	18.31030341	49.05883990
 12.18691823	23.33322609	28.71467247
 12.83782084	23.00026902	33.98387425
 12.54805734	23.07484051	39.01028314
 12.36782679	23.66153433	44.17179262
 12.05375481	23.13072078	49.19045372
 1.21652094	0.11684836	4.74566004
 0.58699586	0.52728303	9.94050509
 0.49910228	26.60054035	15.34186410
 15.44036548	27.05533910	20.89091400
 3.11993362	5.27557928	4.41027200
 1.39641366	5.59091731	9.78944929
 1.14719051	5.87382857	15.15902692
 2.26526375	4.16848023	20.10918250
 0.46265351	5.17369165	25.10205582
 0.39407009	11.25532459	5.19057322
 1.61784656	10.88665913	10.79701644
 0.55579013	11.12015971	16.01049064
 1.14959284	11.13820043	19.89465750
 15.74515565	10.75869180	24.69076612
 0.48368910	17.18369589	4.79823040
 1.08456240	15.77390598	10.10202992
 1.54327214	15.90028413	14.22119251
 0.63870999	16.61144196	21.87165331
 1.57179132	22.16357638	4.92614152
 1.00329517	22.01009030	10.60829052
 0.13005929	23.95867010	14.61565710
 1.70229184	22.51046211	19.12891000
 2.64901588	21.20284030	24.95950667
 4.27133055	0.00357913	5.09530361
 3.62751218	27.11991627	9.91115395
 3.01150262	0.60069197	14.96347760
 4.42711606	26.77770520	19.95513555
 5.23900248	6.86688840	3.86441538
 4.43346296	6.46464681	9.52164342
 3.78502691	5.89570170	14.32485616
 4.70049289	4.18524962	22.03056126
 3.58856117	5.37928052	24.76853713
 5.07360781	10.71868455	5.58297156
 4.28466003	10.93919212	9.90984500
 3.68977582	11.23560130	15.97861568
 3.28503853	12.17427717	20.26715527
 4.56553378	16.09396426	0.14529559
 3.01779353	15.84812502	4.46056121
 3.42689616	17.07591913	10.36048805
 4.37951858	17.75940836	14.57443441
 3.94216766	17.93859998	21.47158069
 4.49376359	21.89390096	4.73077882
 3.85935820	22.64805731	10.73971617
 4.95480095	22.93979265	15.20660569
 3.63152225	22.77144420	21.14993303
 7.51809101	27.46656493	0.00573810
 8.14767319	26.83575427	4.80643782
 5.77081910	1.65877920	9.79234739
 6.36979743	0.57164738	15.22025302
 6.86201817	0.70121569	19.75668813
 7.41624068	5.17573875	5.21990533
 7.56225794	6.17587443	10.18008163
 6.60600879	5.27055959	14.98048985
 6.49258629	5.20483745	19.79763011
 6.42556461	5.56417392	24.29517972
 8.11202187	10.53958633	4.42134873
 7.43655273	11.90151709	9.84506684
 7.60249902	10.86843161	14.98824844
 5.72634369	10.59436283	20.21060304
 7.50733215	15.74763948	0.48660475
 5.87861443	14.98619218	5.67039878
 6.99575272	17.21987073	10.25729173
 6.67691889	16.75492602	16.47132253
 6.35076593	16.51002160	20.69489682
 7.43192586	21.69582747	4.76371955
 7.42545731	22.23985187	9.42069072
 7.63123311	23.12580795	15.07994748
 6.64558612	22.13581439	21.34576307
 11.67437261	0.73458634	5.50352761
 11.04752932	1.47004377	10.56772230
 9.98686843	0.41707045	13.97030582
 9.85254499	1.27459702	20.12460611
 10.17232281	5.44123562	4.06209625
 10.43816578	5.59097335	8.68325687
 9.23918073	4.89207946	14.55415030
 9.48976849	6.16096508	19.70452906
 10.40918855	5.59614247	24.45474164
 10.91629035	11.06117691	5.23402977
 10.07333286	11.05033375	9.51164172
 10.99032252	11.91236026	13.84084258
 8.51526355	11.41507340	20.76275970
 11.22681428	17.57208437	4.56929152
 11.54032942	15.91206185	9.55669667
 8.88551809	16.15182543	14.98507014
 9.37152261	16.26034967	20.04103942
 10.81225276	16.13537361	24.89360670
 11.03135803	22.78144622	4.89800576
 9.16280223	23.92885167	9.48014053
 10.11072292	22.81519046	16.34400985
 10.86151396	19.82399071	20.80893646
 11.84851651	21.40035311	24.52353918
 14.31560213	27.45836113	0.39984281
 14.28064247	27.45975031	5.87011762
 14.14136465	1.67521207	8.92029109
 13.72586833	0.74246077	15.38448880
 13.23848969	26.53985521	19.69303179
 14.36224609	7.11979443	4.36777789
 13.49087218	6.40192500	9.01061589
 10.95583026	6.79415551	14.04134648
 15.23913504	5.58556110	19.81679292
 13.97787684	10.06566809	4.19245663
 13.18623712	10.70232640	9.56595084
 13.52826224	12.15352566	15.74848045
 12.60706616	11.25373542	19.40120312
 12.78765974	15.99861983	2.64017318
 13.50050006	18.36624796	10.05052533
 14.22380965	16.48889622	14.40860999
 14.50638456	16.54142920	19.77631828
 13.96722074	22.26265982	5.24694807
 10.90208223	21.47017880	9.89012179
 15.05835431	20.99953230	14.76259942
 13.72381191	22.23041107	20.35474135
 14.54358763	20.78809165	25.64561330
 0.82500750	5.18234733	4.87057075
 15.53004444	3.90029097	10.59155847
 14.60303769	3.91555552	15.28204002
 14.47497693	2.48201348	20.07758774
 15.46578797	2.30213977	24.45483521
 0.36824285	9.27517813	3.35741598
 15.24979113	8.34970102	10.19288734
 14.68361310	7.86574341	15.20202539
 15.23053536	8.92434791	20.74172806
 15.73195242	13.77868204	0.32907875
 15.85540011	13.95076951	5.35301370
 15.63913633	13.17315114	10.12352889
 0.08669726	14.31382631	16.18828019
 14.33411009	13.83607566	19.83632899
 0.42720219	20.13049504	0.10045554
 15.46656464	20.19919937	4.42177853
 13.98292448	21.67834770	9.43387071
 0.46347142	18.50085217	14.51376922
 15.19351928	19.46869213	20.52280939
 0.13372995	24.73049329	5.07535573
 15.21885090	24.55176922	10.97059945
 14.00844324	25.93893798	13.83775785
 0.34960309	24.54120653	20.29286078
 2.95088415	2.52575975	4.48970670
 2.58369568	2.88589094	9.77926045
 1.40432167	2.68497590	14.81017818
 1.62970850	1.71162069	21.05776666
 2.03361392	3.61476231	23.58252648
 2.93162822	7.66305240	4.28516490
 2.22169506	8.37781820	9.32526173
 3.07844007	9.16860732	14.67706982
 1.42926075	7.19159250	19.56160614
 2.62688103	7.72825122	24.49745991
 3.15761345	12.99405292	5.21838200
 2.98121678	12.84477340	11.82739151
 2.47299319	13.52798217	15.24474366
 1.50197494	13.96937118	20.77593969
 2.42102102	19.25183018	5.33775871
 1.13685225	18.80202859	10.32777199
 2.62152491	20.71256391	15.64117116
 1.78268961	18.38148449	19.82118608
 3.24700360	24.71871531	4.81493469
 2.15610365	24.91566717	10.01724785
 3.05513681	25.32340506	15.13565860
 2.57273095	25.07560305	19.70882917
 6.59908236	2.71063475	0.47141146
 6.78861216	2.72077687	4.24198906
 5.18000095	3.98067962	8.64244599
 5.19868670	2.77687113	14.36673282
 4.69749248	2.77352467	19.60002431
 5.32988808	2.22594807	24.61037773
 6.40979538	8.29503687	5.57880256
 6.31555394	8.62576993	10.78093886
 5.60545250	9.06847697	13.56658706
 4.35687890	8.06903300	19.61582169
 6.63555618	12.75802862	4.39530647
 6.61315028	14.31363951	10.50135500
 6.30586991	13.62416802	14.72614416
 4.16592819	15.36654196	19.93662772
 4.77761920	18.24192625	5.13409554
 5.40344364	20.04403073	11.16315813
 5.64189841	20.19303004	15.80166775
 5.07501920	20.34408553	20.21536997
 5.79400088	24.86061047	4.98523658
 6.02279953	25.18048195	9.69064613
 5.71238790	25.63140543	14.78419248
 5.60647135	24.28022416	20.51822909
 9.66064077	2.92852492	5.16275467
 9.05625017	3.70174087	9.70485436
 8.32656561	2.49868947	14.70436499
 8.18341808	2.97768343	19.58890080
 9.33448781	2.76686005	24.89332651
 8.41932080	7.65353661	4.01620020
 9.11021326	8.28428710	9.93078358
 9.71962343	8.86233649	13.86720256
 7.13911531	8.14924391	19.59198552
 9.30551059	13.49461152	0.61792655
 8.42022752	14.12341793	5.31243622
 9.23938628	13.92412914	9.39863033
 8.74985780	12.95320424	15.87700851
 6.93605033	13.92581171	20.93699718
 7.89450547	14.20156306	25.48081661
 7.48365490	18.00795840	5.43759012
 7.82221189	19.55852158	9.73327083
 9.62876574	20.42681082	15.19828670
 8.27322884	18.88157582	21.06300143
 9.00176353	24.14992019	3.86259231
 9.38199187	26.55680783	9.74747907
 8.76831914	25.69020115	16.16182663
 8.99000437	26.10597774	20.92970593
 10.46602137	24.92772563	25.04466250
 12.29411183	3.30751930	4.24126929
 12.49283971	3.92134164	9.75626590
 11.24719183	2.79762264	14.63977346
 12.59313828	4.54922256	19.91017417
 11.74335713	8.59396043	3.66680906
 11.31056790	8.70692501	8.26802232
 12.06238731	9.95920030	15.23838759
 11.09707108	8.90242808	20.61170390
 13.19792158	14.06938944	0.25120749
 13.07640408	13.16772955	5.61775387
 13.85103128	15.24904392	10.46723643
 10.95966285	14.83205176	14.02311885
 11.25326768	13.78251445	19.85035008
 10.45742170	12.94993278	24.79667340
 13.37973036	19.27015137	5.30532285
 10.61819854	18.38157789	10.13614798
 12.89468871	19.73098292	15.60265943
 11.69260016	17.09882048	18.80688910
 13.11183113	18.55394583	24.88285696
 12.99134184	25.29947549	5.39364772
 12.10819005	25.23170625	9.70205035
 11.46947546	25.65402632	15.28381630
 11.18942437	23.65085708	19.77482218
 13.14164958	24.41660434	24.90940408
 1.73244683	3.86415349	2.08777335
 2.46934758	3.94842126	6.94218221
 1.75781604	3.71588352	12.38132394
 0.76599106	3.49069305	17.91766118
 0.13847673	4.09358788	22.21227663
 1.85617968	9.02070188	1.00433282
 0.49947340	10.38871792	8.22403315
 0.48449210	9.15680159	12.58435166
 0.90117284	9.29455556	18.15284405
 1.46019162	8.95879348	22.47512793
 1.09422772	14.28774689	2.77133714
 1.89530833	15.69576084	7.05291296
 0.66051955	14.31111580	12.56434826
 0.78484033	15.21726217	18.28651332
 15.34139138	14.05443339	22.88155765
 1.66304170	19.48654578	2.15695443
 0.47055502	21.55318456	7.91637882
 1.02114890	20.85230896	12.79775536
 0.12959189	19.81398869	16.91747886
 1.41130424	19.21154245	22.43072745
 0.79021992	25.52680673	1.53006419
 1.06015606	26.35649082	7.10096832
 1.28110285	26.38088794	12.82495645
 0.52002478	24.84649584	17.35195076
 0.23481566	25.32041407	23.12272282
 4.87449659	3.53777616	2.07518254
 5.23647866	4.33656689	5.99372915
 4.25195314	3.85359080	11.36525067
 3.70370370	3.57623188	16.66603075
 4.51730999	0.88928194	22.49232731
 4.44956874	8.79970836	1.47962486
 2.97447718	10.21027404	7.35149049
 3.25004144	9.67297966	12.00742417
 3.48334564	10.50911355	18.35755448
 4.29280182	9.81861383	22.70647854
 4.15046743	13.73624447	2.72956331
 3.97271535	15.70725836	7.60678935
 3.38433697	15.57499106	12.46152571
 3.88442828	15.20763430	16.81213248
 2.90863344	15.36121378	22.79051257
 4.57480656	20.45447941	2.07421959
 4.01307792	20.59403765	8.37197594
 4.05382367	20.90035518	13.46638190
 3.14509712	20.25621912	18.49795410
 3.64525378	20.33277509	22.84239143
 4.37003074	26.39621787	2.25293455
 3.81479873	25.76815921	7.79472095
 3.84008372	25.91472793	12.42273377
 4.72658183	24.72404349	17.70865115
 3.97638887	25.24684910	23.07598516
 8.59622230	3.91349908	2.12005035
 7.32134486	3.49198279	7.46309988
 7.01520499	4.15908586	12.61603999
 6.73255522	3.49798400	16.85101799
 7.31255820	2.01690065	22.14254390
 7.75925659	9.22831918	1.67305292
 6.41826420	9.87357714	8.09099933
 8.47370465	10.07052900	11.96321032
 5.88069893	9.55295790	17.64994887
 7.20785685	9.62381181	22.65478733
 7.27336420	14.67333118	3.10193975
 8.21714382	16.08919703	7.10271633
 7.04106015	15.29522050	12.61996581
 7.36503503	14.79578352	18.32371662
 5.59936729	15.12724592	23.32771346
 7.02793622	19.47159000	2.97758994
 6.34939181	20.55001091	7.11523259
 8.36148784	20.48925215	12.26831306
 8.03607333	20.61890205	17.58778811
 7.28039341	20.08057944	23.13824001
 7.52225065	25.86434507	2.04094263
 7.24682658	26.32346713	7.39305919
 8.43197733	26.39509597	12.61669395
 7.30559434	25.72413247	18.36877156
 7.97344506	24.24900363	23.03317383
 11.25569808	4.25973980	1.46236018
 11.36179226	2.74164046	7.71095787
 10.26252626	3.41631495	12.51022628
 9.74009455	4.42301252	17.17976976
 10.91600995	3.45145223	22.29696462
 10.64044568	9.40433274	0.80315130
 9.09342517	9.09118191	6.54055746
 11.55033128	9.47509324	11.74868532
 10.61361830	9.79571248	18.03618754
 10.50602867	8.42725719	23.34799757
 11.24672443	13.74026396	3.64091641
 10.80075529	15.25885859	6.33649224
 9.58296300	15.64491042	11.73214041
 9.91012545	15.41486838	17.16649619
 9.80907907	13.93188764	22.46419156
 9.38844154	20.08600102	2.02599560
 9.82263297	21.41072873	7.75256359
 11.98461612	21.67974980	13.99675887
 10.58239766	21.13207979	18.30287160
 10.46826479	18.79099835	23.58065713
 11.39226509	26.11111913	2.95519331
 10.54874662	25.81854236	5.62480195
 11.83757985	25.77096340	12.33869975
 10.34450387	26.03876945	18.64816828
 11.76644549	25.68347087	22.73012809
 14.26521898	4.07237844	1.68264333
 14.20436673	3.34253516	6.02563187
 13.18231126	3.76671526	12.86131813
 13.22820742	2.44397862	17.83334696
 13.16286835	5.64712365	22.81846170