Cl
  1.000000
24.00000000	0.00000000	0.00000000
0.00000000	24.00000000	0.00000000
0.00000000	0.00000000	120.00000000
Cl Na 
1280 1280 
car
 0.38675100	23.88350000	119.77800000
 23.84480000	23.97100000	5.84397000
 0.04439730	23.68680000	12.11300000
 0.37678000	0.20410100	18.19400000
 23.72710000	23.56600000	23.85280000
 23.63090000	23.53600000	29.78640000
 23.79540000	23.91600000	36.13560000
 23.77180000	0.25687800	42.15040000
 0.16308300	23.98400000	48.02090000
 0.19947300	0.36852000	54.47820000
 0.13906200	23.86970000	59.72860000
 23.87450000	0.03026360	65.81480000
 0.57236600	23.18810000	71.67600000
 23.92180000	23.82660000	77.33610000
 0.12246200	23.90130000	83.79530000
 0.64562200	0.32931300	90.12060000
 0.34249300	23.77680000	96.19330000
 0.13472900	0.58522200	101.76600000
 0.53692600	23.65190000	107.70500000
 23.83870000	23.87160000	113.88600000
 0.10928100	5.97748000	119.93800000
 0.04700460	5.79657000	5.52602000
 23.79800000	6.17047000	12.11390000
 0.21127000	5.94862000	18.27280000
 23.97310000	5.83325000	23.60630000
 0.17595700	5.80203000	29.62630000
 23.86520000	5.77326000	35.63700000
 0.06246800	5.91460000	42.52490000
 23.58210000	5.46812000	48.33380000
 23.58280000	5.52282000	53.60860000
 23.84770000	6.58760000	60.17190000
 0.02926950	5.88397000	65.77470000
 23.49940000	6.61753000	71.74630000
 23.68130000	6.17745000	77.58700000
 0.37243600	5.99648000	84.32310000
 23.44520000	5.60238000	89.91830000
 23.82050000	5.73428000	96.08210000
 0.26934400	6.06036000	102.08400000
 0.22998900	6.37713000	107.88000000
 0.27113100	5.97565000	114.28200000
 0.13176800	12.33760000	119.81700000
 23.87180000	12.09820000	5.28464000
 23.96070000	12.20050000	11.82980000
 23.61780000	11.84790000	18.08330000
 0.22408600	12.41620000	23.81610000
 23.69590000	12.15030000	30.00210000
 23.66810000	12.24760000	36.09580000
 23.59630000	11.61100000	42.71320000
 0.01285920	11.74790000	48.53140000
 0.10700400	11.62840000	53.87050000
 0.29672900	12.28610000	60.24640000
 23.86970000	12.52590000	65.68860000
 23.82950000	11.99140000	71.90210000
 0.16508500	12.59460000	77.32940000
 0.24105100	11.70700000	83.80830000
 0.18433300	12.12200000	90.20540000
 23.89380000	12.07200000	96.27580000
 23.84550000	12.41230000	102.39700000
 1.04718000	12.32740000	107.98000000
 0.48635100	11.92660000	114.01300000
 0.18892700	18.65280000	119.23000000
 0.07069170	17.68190000	5.55910000
 0.23662300	17.26240000	11.84830000
 23.90770000	18.00760000	18.43500000
 23.75750000	17.72570000	23.72140000
 0.08606920	18.51710000	29.94150000
 0.04116320	17.75280000	36.26220000
 0.18950900	17.68960000	42.32730000
 23.74290000	18.34360000	48.36990000
 23.80460000	18.10480000	54.08620000
 23.75870000	17.96510000	60.23190000
 23.84460000	18.04550000	65.85500000
 23.63370000	17.78580000	71.37120000
 23.77730000	17.96580000	78.36450000
 23.91730000	17.93800000	83.69460000
 0.01770960	17.26750000	91.02930000
 0.22111600	18.28460000	96.18490000
 0.27878900	17.79840000	102.01400000
 0.13236800	17.98330000	108.43600000
 23.44930000	17.75230000	114.28900000
 5.89827000	23.99990000	0.39685200
 5.48589000	23.16950000	6.48931000
 6.04119000	23.99490000	11.84830000
 6.10962000	0.36554200	18.04000000
 5.92054000	0.64809600	23.70540000
 5.80156000	23.59510000	30.16490000
 6.01933000	23.69860000	35.98120000
 5.75343000	0.16019700	42.02440000
 6.07049000	0.16251300	48.30600000
 5.83655000	0.70269600	54.58390000
 5.68052000	0.44246100	60.40700000
 6.22539000	0.20366600	65.71120000
 5.53299000	0.48226700	71.29490000
 5.91923000	0.24172400	77.41830000
 6.24815000	0.06924390	83.70280000
 6.30352000	0.38611800	89.50260000
 6.03532000	23.94240000	96.39090000
 5.94773000	0.26528300	102.45900000
 6.24817000	0.32753500	108.10900000
 6.28302000	0.09814720	113.92700000
 5.92301000	5.94295000	0.26602400
 5.79451000	6.37931000	5.67216000
 5.80434000	5.44588000	12.02570000
 5.79802000	5.89741000	17.84440000
 5.98953000	6.06840000	23.79160000
 5.19528000	5.95236000	29.79860000
 5.97775000	5.53720000	36.57210000
 5.67355000	6.11725000	41.75880000
 5.75946000	5.46510000	47.74480000
 6.11406000	5.90771000	54.18470000
 5.95559000	6.10440000	59.93250000
 5.72547000	6.10720000	65.76590000
 6.09950000	6.13133000	71.83540000
 6.94475000	6.09163000	77.17920000
 6.65188000	6.60981000	83.76120000
 6.33140000	5.94435000	90.31610000
 5.67638000	5.90529000	96.12240000
 5.80678000	6.62105000	102.28100000
 6.11600000	5.73452000	108.53000000
 6.08178000	5.87143000	114.11700000
 5.77431000	11.83820000	119.63300000
 5.97859000	12.41110000	5.61552000
 5.29809000	12.29850000	12.30130000
 6.33993000	11.54680000	17.43980000
 5.90195000	12.09890000	23.66510000
 5.32788000	12.54320000	30.26890000
 5.57864000	12.00450000	36.29670000
 5.68273000	12.07650000	42.21040000
 5.78686000	11.33540000	47.44010000
 5.48409000	11.69730000	54.22840000
 6.04597000	12.07580000	59.64160000
 6.50176000	11.97920000	65.73170000
 6.20843000	12.64540000	71.62290000
 6.50029000	12.23190000	77.60930000
 6.05976000	12.38360000	83.04510000
 6.03359000	12.23260000	90.15230000
 5.77266000	12.23130000	95.94450000
 6.37380000	12.04880000	102.22100000
 6.27808000	11.85880000	108.63000000
 6.23256000	11.93860000	114.17800000
 6.48139000	18.16750000	119.67900000
 6.60485000	17.58160000	6.27235000
 6.00957000	17.86440000	12.66950000
 5.92995000	17.70700000	18.31890000
 6.19171000	17.93330000	23.92630000
 6.01067000	18.21780000	30.73790000
 5.50574000	18.09630000	36.31550000
 5.92200000	17.87090000	42.63980000
 5.34056000	17.40310000	48.40880000
 5.28971000	17.94610000	54.02170000
 5.57435000	18.22230000	60.07800000
 6.02961000	18.09950000	65.47230000
 5.60078000	17.67920000	71.51240000
 6.15311000	18.05180000	77.62230000
 6.11263000	18.02500000	84.13210000
 5.88031000	17.86660000	90.40390000
 5.86647000	18.32430000	96.39630000
 6.23176000	17.55220000	101.65000000
 6.29118000	17.48840000	108.40000000
 6.38989000	17.78870000	114.21500000
 11.84860000	23.88370000	0.25099400
 11.98630000	0.00616737	6.52339000
 12.48290000	23.96210000	12.54450000
 11.81990000	0.00517276	18.03300000
 11.92360000	23.67130000	24.30320000
 11.64030000	23.77560000	29.83110000
 11.71080000	0.31792300	36.00240000
 11.34040000	0.29264000	41.95730000
 11.84570000	0.11282500	47.60180000
 11.76710000	23.94890000	54.55320000
 12.79390000	23.81340000	59.80840000
 11.87220000	23.98780000	66.20900000
 11.78820000	0.23274300	71.37620000
 12.43230000	0.24849900	77.82510000
 12.40460000	23.98840000	83.76230000
 12.33690000	0.24178600	89.69270000
 11.75520000	0.02222430	96.69290000
 12.84700000	23.83280000	101.91700000
 12.20830000	0.38640300	108.56200000
 12.34930000	0.26094400	114.06400000
 11.85610000	5.90602000	0.25822100
 12.12760000	6.05875000	5.96143000
 11.80610000	5.81232000	12.37870000
 12.00480000	5.66729000	18.54230000
 12.54850000	6.34810000	23.82870000
 12.08520000	6.40647000	30.11010000
 11.59110000	6.05874000	36.24820000
 11.66390000	6.02013000	41.79620000
 11.99880000	5.98936000	48.17550000
 11.74120000	6.23248000	54.08720000
 11.83280000	5.99485000	59.86390000
 12.25320000	6.39518000	65.82580000
 12.12770000	6.32129000	71.76470000
 12.38620000	6.06245000	77.47580000
 11.86830000	6.17312000	83.49620000
 12.51250000	5.77166000	90.29200000
 11.98110000	6.25941000	96.46040000
 12.22170000	6.39354000	101.87800000
 11.94260000	5.80453000	108.03000000
 12.06030000	5.86589000	114.19100000
 12.18560000	11.75980000	0.04113420
 12.34760000	11.74600000	6.73627000
 11.51530000	12.13010000	12.38560000
 11.86550000	12.09560000	17.84350000
 12.10230000	12.21180000	23.86990000
 12.04570000	12.22720000	30.17110000
 11.96910000	12.07620000	35.92660000
 11.75300000	11.79400000	41.45100000
 11.83830000	12.06100000	47.44190000
 12.16880000	11.83340000	54.34700000
 11.53270000	11.83970000	60.03280000
 12.28460000	11.47480000	65.56240000
 12.01610000	11.94360000	71.54780000
 12.17270000	12.32440000	77.37300000
 11.87590000	12.38610000	83.57370000
 12.52830000	12.18480000	90.37550000
 11.76430000	12.35790000	95.87290000
 12.29380000	12.14060000	102.08500000
 11.99710000	11.68990000	107.90700000
 11.99180000	11.47750000	113.70400000
 12.24350000	17.57390000	119.85300000
 12.32290000	17.89190000	6.38943000
 12.42390000	17.78790000	12.11520000
 11.73960000	18.18110000	18.41610000
 12.15470000	18.38820000	24.02680000
 11.64830000	18.21230000	29.70280000
 11.85700000	18.18310000	35.63650000
 11.83890000	17.73140000	42.00880000
 11.93960000	18.34480000	47.89370000
 11.57800000	17.89770000	53.64120000
 11.69830000	17.90780000	60.32600000
 12.06240000	18.07430000	65.46010000
 12.14130000	17.79550000	71.61300000
 11.97030000	18.44400000	77.92460000
 12.17350000	17.60070000	84.43440000
 11.99880000	17.93710000	90.60270000
 12.05020000	18.00120000	96.02780000
 12.00330000	18.22440000	102.39300000
 12.15690000	17.78820000	108.44600000
 11.92630000	17.49650000	114.05300000
 17.75590000	0.16108100	0.05570610
 17.91650000	23.92040000	6.30538000
 18.25180000	23.97410000	11.89140000
 18.19930000	23.87640000	18.13190000
 17.69190000	0.49073300	23.63310000
 18.06510000	0.02893770	29.56060000
 17.63620000	23.91560000	36.39400000
 17.81560000	23.70040000	42.08940000
 17.58190000	0.22133000	48.15790000
 17.49100000	23.78630000	53.88960000
 18.18900000	23.75180000	60.04090000
 17.85940000	0.03428150	66.18770000
 17.83580000	0.40900900	71.87050000
 18.19850000	0.32328300	77.42580000
 18.07160000	0.12079700	83.70210000
 17.46900000	23.83460000	90.18320000
 17.88920000	0.05331750	95.86400000
 18.18810000	23.95720000	102.58000000
 17.98440000	0.24861500	108.05600000
 18.14790000	23.78260000	113.88600000
 17.86080000	5.66559000	119.93200000
 18.42640000	5.48176000	6.27669000
 17.84650000	5.95387000	11.92830000
 18.07880000	5.78285000	17.63440000
 17.95690000	5.83194000	23.60000000
 18.13540000	6.21096000	30.60970000
 17.64960000	6.01195000	35.94020000
 17.16020000	6.39038000	42.33830000
 17.81820000	5.73580000	48.19290000
 18.05690000	6.18358000	54.28010000
 17.96440000	5.62432000	60.17110000
 17.70470000	5.95470000	65.51320000
 18.32630000	6.40842000	71.76920000
 18.12050000	6.24652000	78.29210000
 18.35250000	6.29921000	83.99340000
 17.81570000	6.38527000	90.04980000
 18.10140000	5.74845000	96.56810000
 18.07250000	6.67562000	102.17600000
 18.31380000	5.43169000	108.25500000
 18.81550000	5.75560000	113.75900000
 18.24740000	12.08560000	119.77100000
 18.28540000	12.18610000	5.92911000
 17.64410000	11.89450000	12.21630000
 18.10800000	12.72060000	18.02240000
 17.62030000	12.21670000	23.65250000
 17.65410000	12.05830000	29.92070000
 18.06550000	12.40440000	35.86670000
 17.92180000	12.13090000	41.93500000
 18.12430000	11.86820000	48.01780000
 17.53730000	11.92680000	53.98650000
 17.96970000	11.72490000	59.94840000
 18.24210000	12.36620000	65.21760000
 18.17460000	11.91660000	71.43540000
 17.55370000	12.56390000	77.93720000
 18.18030000	12.03350000	83.69320000
 18.08900000	11.89780000	89.37750000
 18.06880000	12.51950000	96.39810000
 17.89950000	12.16070000	101.91800000
 17.66980000	12.21160000	108.76400000
 17.62790000	12.04150000	114.32300000
 18.38960000	17.91060000	0.13237900
 17.78210000	18.02480000	5.70425000
 18.04360000	17.74040000	12.26280000
 17.66350000	18.17430000	18.21610000
 18.00080000	17.86820000	24.13830000
 17.78240000	17.70480000	29.59720000
 17.15410000	18.16170000	35.62620000
 17.79780000	17.97210000	42.46230000
 17.93300000	17.77400000	47.88790000
 17.89070000	17.89560000	53.39150000
 17.94520000	17.89150000	59.57370000
 18.01740000	18.14130000	65.84630000
 17.35270000	17.71480000	71.67540000
 17.82370000	17.65960000	77.69770000
 18.26210000	17.73210000	83.84740000
 18.39240000	18.26130000	89.89950000
 18.39490000	18.07410000	95.70510000
 17.95830000	18.16200000	102.26800000
 17.96600000	17.78970000	108.07500000
 18.34340000	17.83820000	113.58500000
 0.12790700	2.80491000	3.11271000
 23.92490000	2.87511000	9.13120000
 0.40618000	3.39122000	15.03400000
 23.74550000	2.60250000	21.24600000
 23.83270000	3.15039000	26.50560000
 23.73280000	2.51689000	32.81470000
 23.73860000	2.98615000	39.38770000
 0.02475400	2.51781000	44.90340000
 0.47362700	2.88387000	50.64470000
 0.26258900	3.23648000	57.12960000
 23.60360000	2.71268000	62.97630000
 0.06672980	3.59399000	68.88620000
 0.19996300	2.96481000	74.47910000
 0.24948700	3.12439000	80.69400000
 23.69950000	2.88501000	86.68230000
 0.45507300	2.97643000	93.40850000
 23.81140000	2.93171000	99.31040000
 0.52501800	3.13052000	105.39200000
 0.03793270	3.29073000	110.85200000
 0.40009100	2.79367000	117.41600000
 0.14045700	8.76328000	3.09533000
 0.09398320	8.80623000	8.70254000
 23.99010000	8.97245000	14.99000000
 23.62230000	8.80463000	20.80830000
 0.32664700	9.35346000	27.03030000
 23.76640000	9.33511000	33.00150000
 23.55480000	9.26854000	39.37280000
 0.04819770	8.60302000	45.42620000
 0.04151990	8.89438000	51.01530000
 23.72160000	9.46139000	56.66860000
 0.05286610	9.11743000	62.96550000
 23.68420000	9.06441000	68.72350000
 23.97030000	9.46229000	74.90130000
 0.63200300	9.19721000	80.33200000
 0.35067600	9.22391000	87.52470000
 23.90820000	8.82910000	92.53740000
 0.51107600	9.47296000	99.30390000
 0.28664100	9.39751000	105.06800000
 0.10555900	9.01172000	111.29100000
 0.00811914	9.23777000	117.05500000
 0.00826196	14.97200000	2.68058000
 0.26863100	14.67750000	8.73969000
 23.78520000	14.55270000	14.98990000
 0.12461500	14.67850000	20.86920000
 23.59450000	15.11160000	27.09800000
 23.69690000	15.07360000	32.69800000
 23.72800000	15.18470000	39.52780000
 23.64630000	15.07930000	45.71240000
 23.80600000	15.47370000	51.15410000
 23.76830000	15.02150000	56.56270000
 0.05788660	15.00780000	63.14080000
 0.17947300	14.58130000	69.10350000
 23.87670000	15.16210000	74.44800000
 23.99326527	14.53530000	80.61540000
 0.19734000	14.94440000	87.20630000
 23.31540000	14.39540000	93.03110000
 23.94370000	15.11580000	98.87170000
 23.52060000	15.37490000	105.08200000
 23.87250000	15.19150000	111.18900000
 23.70980000	15.10520000	117.01000000
 23.77860000	20.90800000	2.62446000
 0.03303530	20.38240000	9.19293000
 23.20080000	21.31600000	15.04010000
 23.66350000	21.14640000	21.13500000
 23.94390000	20.80620000	26.76170000
 0.15444800	20.97430000	33.53460000
 0.16734000	20.94230000	39.59350000
 0.19723600	21.11590000	45.34980000
 23.74960000	21.33240000	50.98870000
 23.96370000	20.57500000	56.87470000
 0.15638600	21.33540000	62.99280000
 0.23473800	20.44350000	68.26970000
 23.65370000	20.68890000	74.39670000
 0.14666500	20.82960000	80.96670000
 0.56214900	20.87530000	87.60450000
 23.91780000	21.48290000	93.14730000
 0.33977500	21.04730000	99.16930000
 0.02040550	20.76360000	105.04500000
 0.19699700	20.85130000	111.34700000
 0.46991200	21.36700000	116.62900000
 5.89044000	2.91700000	3.20349000
 5.79609000	2.40641000	8.67052000
 6.24505000	3.10343000	14.97460000
 6.01001000	2.88803000	20.50550000
 5.94027000	3.01054000	27.45390000
 5.92409000	2.98651000	32.85120000
 6.14844000	2.77706000	39.44260000
 5.57439000	3.01191000	44.96670000
 6.18174000	2.80873000	51.24660000
 6.45603000	3.14133000	57.71090000
 6.10539000	3.37777000	62.98440000
 5.57702000	3.32842000	68.67530000
 6.06209000	3.52114000	74.53840000
 6.18598000	3.76376000	81.22020000
 6.03284000	2.84753000	86.37940000
 6.17621000	3.05448000	92.87990000
 6.25984000	2.80124000	99.44060000
 5.83651000	2.83212000	105.47200000
 6.21139000	2.45202000	111.38200000
 5.97804000	3.28748000	116.72400000
 6.34999000	9.09639000	2.52336000
 5.89687000	9.18760000	8.85168000
 5.67819000	8.38378000	14.54580000
 5.78897000	9.20653000	20.80970000
 5.95925000	9.23580000	26.66150000
 5.33532000	9.25977000	32.93730000
 6.36046000	9.27942000	38.82730000
 5.70523000	8.79375000	45.37750000
 5.93861000	8.70787000	51.06160000
 6.23728000	8.33241000	56.85620000
 5.89610000	8.78100000	62.93330000
 6.11148000	8.88497000	68.67850000
 5.98505000	9.36619000	74.79860000
 6.13533000	8.86318000	80.39220000
 6.22299000	9.30405000	87.09430000
 6.28633000	9.09692000	92.83050000
 6.34664000	8.70596000	99.25800000
 6.43833000	9.28298000	105.69800000
 6.03340000	8.50422000	111.06700000
 6.09211000	8.81115000	116.88200000
 5.66922000	14.87800000	2.70096000
 5.61189000	15.10960000	8.84864000
 6.02386000	15.51160000	15.27090000
 5.91124000	15.01580000	21.07540000
 6.26599000	15.19850000	26.33920000
 5.61343000	15.36720000	33.67120000
 5.31141000	14.79450000	38.95620000
 5.73775000	14.49510000	45.05740000
 6.01819000	14.86800000	51.21380000
 6.34279000	14.95100000	57.05450000
 6.22306000	15.12920000	62.74450000
 5.89010000	14.89870000	68.37000000
 5.65762000	15.38200000	74.65380000
 6.21391000	15.16700000	80.75860000
 6.66229000	14.97360000	86.99060000
 6.19958000	14.97480000	93.03810000
 6.24688000	14.76480000	98.75510000
 6.29991000	14.87820000	105.23000000
 6.46450000	14.90420000	111.32900000
 6.01640000	15.19070000	116.89700000
 6.68648000	20.22690000	3.15905000
 6.43438000	20.69260000	9.54423000
 5.96014000	20.95370000	15.43280000
 5.53274000	20.86160000	21.36220000
 5.84187000	21.12230000	26.96760000
 5.33543000	21.05140000	33.69990000
 5.88536000	21.01020000	39.49260000
 6.34584000	21.02510000	45.24040000
 6.01945000	21.43510000	51.16110000
 5.53768000	21.24430000	57.67270000
 6.51184000	21.32170000	62.71340000
 6.31734000	21.12600000	68.52420000
 5.93690000	20.85910000	74.21920000
 5.65211000	21.11070000	80.96910000
 6.16070000	20.89470000	86.69040000
 5.96682000	21.08420000	92.57170000
 6.05413000	21.48640000	99.37200000
 6.10681000	20.72120000	105.28200000
 5.76557000	21.48680000	111.10900000
 6.37756000	21.22710000	116.50000000
 12.04680000	3.01694000	3.14809000
 11.60940000	2.89666000	9.23205000
 12.40460000	3.08256000	15.30790000
 11.71130000	3.14264000	20.96010000
 11.79230000	3.69411000	26.83590000
 11.69390000	3.22293000	32.48990000
 12.27920000	2.95532000	38.54190000
 11.49250000	2.98348000	44.98960000
 11.76960000	3.24281000	51.11300000
 11.88820000	2.90241000	57.26620000
 12.10630000	2.73452000	63.03170000
 11.87160000	3.54110000	68.41190000
 12.15890000	2.23369000	74.87990000
 12.09590000	2.99880000	80.62850000
 11.85970000	3.00160000	86.93600000
 12.37910000	3.14073000	93.52010000
 11.74730000	3.23781000	99.15550000
 12.17860000	2.85616000	104.77100000
 12.11850000	2.80955000	111.03000000
 11.99050000	2.81384000	117.23100000
 12.17790000	9.22624000	3.00612000
 12.04650000	8.88496000	8.86728000
 11.76480000	8.94158000	15.27470000
 12.25480000	9.06504000	21.14440000
 11.47230000	9.36414000	26.80210000
 11.09160000	9.34365000	32.81410000
 11.69810000	8.90243000	39.11710000
 12.20240000	9.12379000	44.92600000
 12.08300000	8.81072000	51.14460000
 11.93540000	8.95244000	57.06460000
 11.91960000	8.72072000	62.68050000
 11.85290000	9.08869000	68.92010000
 11.77360000	9.06162000	74.59150000
 12.06990000	9.32632000	80.23940000
 11.82630000	9.19893000	87.35190000
 12.23860000	9.18160000	93.16440000
 11.93040000	9.08432000	99.12690000
 12.34180000	8.83193000	104.62500000
 12.24880000	8.56425000	111.11400000
 12.05980000	8.70919000	116.81500000
 12.68700000	15.06680000	2.99353000
 11.45920000	15.39430000	8.78409000
 11.40790000	15.10480000	14.74780000
 12.39390000	14.74950000	20.51390000
 12.13340000	15.39860000	26.84110000
 12.00460000	15.23620000	33.06330000
 11.46770000	15.03630000	38.61510000
 11.21150000	14.48580000	44.89940000
 11.87030000	14.26680000	51.10860000
 12.19100000	15.13510000	57.11720000
 11.94030000	14.75260000	63.06030000
 12.44280000	14.75040000	68.72530000
 12.38460000	15.19030000	75.31570000
 11.77010000	15.41890000	80.72970000
 11.83450000	15.19330000	87.11990000
 12.03990000	15.34510000	93.34440000
 12.31420000	15.22980000	98.93110000
 11.92570000	15.20540000	105.20900000
 12.06770000	14.81900000	111.63000000
 11.99530000	14.72080000	116.97800000
 11.73590000	20.57100000	3.57038000
 12.05460000	20.72750000	9.51473000
 11.77970000	20.80540000	15.56830000
 11.50280000	21.04290000	21.02840000
 11.82380000	21.20630000	27.10090000
 11.78710000	21.17200000	33.22280000
 11.87850000	21.04750000	39.14990000
 11.62270000	21.02940000	45.02450000
 11.77580000	21.17380000	51.30540000
 12.37700000	20.48140000	57.02160000
 12.21150000	21.30760000	62.83980000
 12.38780000	20.48560000	69.15670000
 12.27860000	21.21950000	74.48080000
 12.37630000	21.00110000	81.13450000
 12.24100000	21.51860000	86.89940000
 12.93390000	21.32360000	92.46150000
 12.04350000	20.91820000	98.81180000
 12.52830000	20.92320000	105.42300000
 12.08680000	20.73320000	111.14000000
 11.82090000	21.46910000	116.25200000
 18.03110000	2.77164000	3.27799000
 18.52540000	2.81282000	8.90922000
 18.34460000	2.88619000	15.06090000
 17.67650000	2.73776000	20.31790000
 18.22780000	3.58803000	27.01930000
 17.76430000	2.56344000	33.21330000
 17.88870000	2.77469000	39.73140000
 17.95200000	2.78204000	44.98430000
 17.83440000	3.04654000	50.88620000
 17.75960000	2.55827000	57.15400000
 18.22450000	2.77592000	62.83630000
 18.00510000	3.04413000	68.94600000
 18.30060000	3.55697000	75.00530000
 18.12540000	2.81868000	80.84600000
 18.12690000	3.06537000	87.07130000
 17.84790000	2.89474000	92.92130000
 18.50910000	2.91142000	99.44080000
 18.11980000	2.99004000	104.92300000
 18.47160000	3.07738000	111.29500000
 18.35240000	2.70344000	117.46200000
 17.90970000	9.53179000	3.36622000
 17.80110000	8.97908000	9.13039000
 17.44490000	8.76714000	14.99640000
 18.13940000	9.14612000	21.09560000
 18.18560000	9.49518000	26.60720000
 18.14290000	9.29657000	33.08390000
 18.20840000	8.93549000	38.67110000
 17.85700000	9.02983000	45.08850000
 18.52550000	8.88454000	50.67110000
 17.83660000	8.70032000	57.16710000
 17.60220000	9.60909000	63.16320000
 17.96480000	8.96267000	68.72380000
 18.17790000	9.03467000	74.68860000
 17.90150000	9.15478000	80.65160000
 18.23340000	9.14517000	86.59310000
 17.83140000	9.07094000	93.40130000
 18.34340000	8.91986000	98.63970000
 18.37130000	9.38875000	105.88100000
 17.87250000	8.65092000	111.16200000
 17.82090000	8.25217000	117.29900000
 17.96500000	15.07040000	3.21231000
 18.42430000	15.12490000	9.14381000
 18.21900000	15.39840000	14.99410000
 18.30940000	14.60920000	20.90630000
 17.86190000	14.64150000	27.02270000
 18.13020000	15.23530000	32.57730000
 17.88570000	14.74230000	38.65960000
 17.49040000	14.75240000	45.02280000
 17.77730000	14.79480000	50.80420000
 18.13220000	14.70650000	57.52180000
 18.79700000	15.29980000	62.57340000
 18.10520000	14.91330000	68.53710000
 18.08260000	14.74540000	74.69940000
 18.56400000	14.70560000	81.13840000
 18.01230000	15.08800000	86.58390000
 18.11030000	14.46150000	92.21520000
 18.46930000	15.54570000	99.08650000
 17.62380000	14.78180000	104.94100000
 17.63770000	14.69680000	111.21400000
 18.50120000	14.71210000	117.25600000
 17.40470000	21.01130000	3.33219000
 18.03130000	20.92050000	9.15415000
 18.09280000	21.18610000	14.92570000
 17.91560000	21.04090000	21.19430000
 17.69000000	21.32470000	26.93430000
 17.48230000	21.09210000	32.86970000
 17.22290000	20.65140000	39.51250000
 17.52230000	20.91010000	45.10280000
 17.38610000	20.97370000	50.96530000
 17.98600000	20.99730000	56.33850000
 17.64580000	21.21360000	62.83300000
 17.95850000	21.06030000	69.10270000
 17.82130000	21.44470000	74.81990000
 17.96010000	21.10550000	80.82960000
 18.68500000	20.97390000	86.75730000
 18.35210000	20.92140000	92.21570000
 18.07500000	21.17510000	98.89310000
 18.25660000	20.89720000	105.37400000
 18.13470000	21.63980000	110.65500000
 18.03270000	20.93450000	117.09500000
 3.29630000	23.96660000	3.17428000
 2.83134000	23.58740000	8.86750000
 3.17858000	0.34051200	15.34230000
 3.00767000	0.02841470	20.68550000
 2.74096000	0.12926000	26.87710000
 2.31911000	23.76280000	32.88520000
 2.77662000	23.89050000	39.19060000
 3.23288000	23.40080000	44.75430000
 2.81661000	0.28935900	51.27730000
 2.75050000	0.84560000	57.04500000
 3.02669000	0.22700900	62.81020000
 2.70923000	0.01913310	68.55940000
 3.17361000	0.56175000	74.52920000
 3.60536000	23.81580000	80.25910000
 2.95780000	0.31815800	87.15120000
 3.25911000	23.65340000	92.87850000
 2.94387000	23.92460000	99.11740000
 2.98266000	23.90170000	105.01100000
 2.56527000	23.74570000	111.33300000
 3.29151000	0.27854000	116.99800000
 3.07203000	6.24167000	2.98632000
 2.78563000	5.94106000	9.15068000
 2.97764000	6.17868000	14.83970000
 2.71950000	5.52362000	20.88330000
 2.77655000	6.09415000	27.14430000
 2.90303000	5.50814000	33.47530000
 2.62296000	6.02644000	39.02290000
 2.62582000	5.78104000	45.20060000
 2.79686000	5.91236000	51.00510000
 2.79779000	6.22201000	57.07260000
 2.43786000	6.14788000	62.72090000
 2.68720000	6.14463000	68.76090000
 3.01526000	5.93264000	74.22870000
 3.31694000	6.48735000	80.41420000
 3.45778000	5.84422000	86.58650000
 2.91867000	5.55167000	93.23240000
 2.82381000	5.46732000	99.51350000
 3.34549000	6.15136000	105.11400000
 2.82090000	6.24546000	110.98500000
 3.10276000	5.87254000	117.45900000
 2.76536000	11.82990000	2.66574000
 3.11529000	12.30270000	9.04852000
 2.73291000	12.02210000	15.53370000
 3.16955000	11.91780000	20.59960000
 2.95651000	12.12460000	26.79960000
 2.49298000	12.55910000	33.32860000
 2.54713000	12.24340000	39.05480000
 2.23744000	12.13290000	45.43040000
 2.87071000	11.67310000	51.11600000
 2.96681000	11.75640000	57.14250000
 3.05998000	11.64280000	62.90020000
 2.99897000	11.85380000	68.87510000
 3.31002000	11.99510000	74.84860000
 3.62823000	11.73810000	80.07050000
 3.16649000	12.02900000	86.71720000
 2.62310000	11.90020000	93.38420000
 3.46651000	11.69330000	99.02550000
 3.29428000	12.35260000	105.05200000
 3.18993000	12.25230000	111.19800000
 2.96717000	11.91300000	116.93200000
 3.01202000	17.88320000	2.64990000
 3.19527000	17.89510000	9.00908000
 2.54217000	17.84830000	15.19480000
 2.65368000	18.51080000	21.21510000
 3.43445000	17.77560000	26.72160000
 2.74311000	18.21470000	33.47380000
 2.86679000	17.67880000	39.44940000
 2.78543000	17.88750000	45.37570000
 2.82059000	18.50840000	51.23220000
 2.94172000	17.64950000	57.12690000
 2.99278000	17.86540000	62.69380000
 3.14693000	17.69590000	68.68630000
 2.92893000	18.43300000	74.89870000
 3.18359000	18.03610000	80.90160000
 3.57789000	17.82250000	87.01090000
 3.00276000	17.94970000	93.69140000
 3.10928000	18.06000000	98.91550000
 3.12309000	18.02600000	105.13900000
 3.62168000	17.92840000	111.19900000
 3.35889000	18.11650000	116.80300000
 9.01996000	23.81710000	3.90113000
 9.33353000	23.66200000	9.43583000
 8.96033000	0.13163700	15.04950000
 8.93775000	0.46522800	21.43150000
 8.62351000	0.28367000	27.10990000
 8.87930000	23.99727555	32.67400000
 9.08723000	0.39461900	38.85960000
 8.74106000	0.32214200	45.02310000
 8.96112000	0.27775800	51.73380000
 8.93932000	23.87270000	57.79190000
 9.14139000	0.24635200	62.77740000
 8.92905000	0.44823500	68.92590000
 8.80369000	23.89290000	74.30940000
 9.01787000	23.59820000	80.99000000
 9.32912000	23.71670000	86.95450000
 8.58405000	23.83920000	93.40890000
 9.28158000	0.39416800	99.49440000
 9.39982000	0.04059160	105.43300000
 9.50012000	0.00111006	111.23800000
 9.02805000	0.19460100	117.36700000
 8.53389000	5.99026000	3.27847000
 9.01955000	5.47917000	9.32782000
 8.35038000	5.67517000	15.32320000
 8.74783000	6.28096000	21.17640000
 8.90633000	5.86579000	26.65460000
 8.55132000	5.74446000	32.41310000
 8.86776000	5.53125000	39.07890000
 9.08914000	6.18731000	45.32680000
 9.07623000	5.98195000	51.38260000
 8.89666000	5.72211000	56.95700000
 9.28764000	5.91337000	63.36170000
 8.94893000	5.55175000	69.15530000
 9.20550000	6.09551000	74.52050000
 9.33654000	6.00533000	80.69540000
 9.70515000	5.97225000	86.60350000
 9.26721000	5.90533000	93.14570000
 8.91471000	5.64487000	99.48960000
 9.29992000	6.15069000	104.71600000
 9.16869000	5.60617000	110.87300000
 9.54546000	5.57809000	117.23600000
 8.90775000	12.03990000	2.42196000
 8.61202000	12.08050000	9.45459000
 9.05715000	11.76220000	15.33150000
 9.29147000	12.04530000	20.74850000
 9.06978000	12.18930000	27.07670000
 8.42936000	12.60850000	32.71220000
 8.55986000	12.21490000	39.41590000
 8.58677000	11.96080000	44.76630000
 9.05278000	11.95490000	51.05300000
 9.29777000	11.91120000	57.10480000
 9.10591000	11.48920000	62.89920000
 8.82532000	11.82150000	68.68940000
 8.88702000	12.41720000	74.39860000
 9.18268000	12.34550000	80.32260000
 9.25848000	12.37120000	87.54080000
 8.98972000	12.00020000	93.26880000
 9.49168000	12.46370000	99.33310000
 9.09623000	11.92370000	105.10100000
 9.13291000	11.90620000	110.84900000
 9.18775000	11.52500000	117.04500000
 9.28893000	17.73440000	3.30340000
 9.03304000	17.80580000	9.49134000
 9.10985000	18.11820000	15.49010000
 8.78851000	17.73470000	21.50830000
 8.72465000	17.67540000	26.79080000
 8.68674000	18.08260000	33.48170000
 8.57093000	17.98920000	39.18470000
 8.40870000	17.90040000	45.20080000
 8.74240000	17.66880000	50.77900000
 9.12712000	18.23690000	57.31310000
 8.82323000	18.03880000	63.06290000
 9.57976000	17.57820000	68.21410000
 9.15315000	18.49150000	74.22190000
 8.96888000	18.13990000	80.41410000
 9.46443000	17.83480000	87.13840000
 9.26406000	18.41900000	93.59810000
 8.83914000	18.97730000	98.82070000
 8.90096000	18.06870000	105.29000000
 9.23919000	17.73730000	111.48700000
 9.18866000	18.26570000	116.87500000
 14.69070000	23.66470000	3.38347000
 14.87390000	0.03732250	9.41284000
 15.04730000	0.02667580	15.34940000
 14.65320000	23.11640000	20.91420000
 14.78010000	0.58376900	27.02680000
 14.58260000	0.12576100	32.81430000
 15.03600000	0.10849300	39.23470000
 14.64090000	0.06327400	45.09550000
 14.50010000	23.90030000	50.91880000
 14.95050000	23.87010000	56.93900000
 15.18470000	0.27133000	63.36800000
 15.21870000	0.21007200	69.03280000
 15.26500000	23.64660000	74.56650000
 15.40130000	0.29716300	80.57260000
 15.34930000	23.96760000	86.78890000
 14.93820000	0.28312500	93.33470000
 15.81090000	23.99050000	99.47180000
 14.89480000	0.02723790	105.30800000
 14.87690000	0.15513700	111.16900000
 14.75960000	23.99577382	116.97700000
 15.07730000	5.90204000	3.44899000
 15.15850000	6.04212000	9.07150000
 15.32900000	6.23760000	15.23120000
 15.23220000	6.30870000	21.24170000
 14.76760000	5.72797000	27.16000000
 14.78810000	6.40690000	32.51130000