Na4 Cl4
1.0
   6.0    0.0000000000000000    0.0000000000000003
  -0.0000000000000003    6.0    0.0000000000000003
   0.0000000000000000    0.0000000000000000    6.0
Na Cl
4 4
direct
   0.0000000000000000    0.0000000000000000    0.0000000000000000 
   0.0000000000000000    0.5000000000000000    0.5000000000000000 
   0.5000000000000000    0.0000000000000000    0.5000000000000000 
   0.5000000000000000    0.5000000000000000    0.0000000000000000 
   0.0000000000000000    0.0000000000000000    0.5000000000000000 
   0.0000000000000000    0.5000000000000000    0.0000000000000000 
   0.5000000000000000    0.0000000000000000    0.0000000000000000 
   0.5000000000000000    0.5000000000000000    0.5000000000000000 
