Cu
  1.000000
18.42641794	0.00000000	0.00000000
0.00000000	18.42641794	0.00000000
0.00000000	0.00000000	66.33510457
Cu 
1800 
Dir
 0.98531603	0.98245357	0.98507502
 0.97483407	0.99453947	0.03946101
 0.00267001	0.97555043	0.09513243
 0.97840503	0.96853333	0.15533555
 0.98440728	0.97867638	0.20790199
 0.97484687	0.98955060	0.26068399
 0.98177519	0.98791756	0.31679757
 0.98039228	0.98269235	0.37208805
 0.98686451	0.99725840	0.42872926
 0.99202992	0.00278850	0.48427300
 0.97981062	0.99481265	0.53884441
 0.97539848	0.00219135	0.59494140
 0.97419650	0.99814606	0.64963793
 0.98830592	0.99472043	0.70776703
 0.97344476	0.99876710	0.76511073
 0.00096102	0.97659242	0.82166901
 0.98566238	0.97250046	0.87850619
 0.98358238	0.96702588	0.93045003
 0.97650759	0.16846628	0.98217679
 0.98646954	0.18455622	0.04461831
 0.99539694	0.18540391	0.09877214
 0.97556671	0.17356982	0.15466773
 0.98112938	0.19068492	0.21040895
 0.97525738	0.17980000	0.25954734
 0.99430627	0.17398498	0.31930303
 0.00995017	0.17844597	0.37622764
 0.99724426	0.18211461	0.42840514
 0.99814300	0.19097363	0.48563427
 0.98286059	0.18335251	0.53865446
 0.97534963	0.17486687	0.59324547
 0.96849535	0.18380132	0.65403831
 0.99250109	0.18747214	0.70421537
 0.99396714	0.18650993	0.76545896
 0.99685664	0.17851978	0.81902185
 0.98352811	0.17956230	0.87414952
 0.97753671	0.18727731	0.92285676
 0.98797824	0.37918710	0.98625128
 0.98318007	0.38520183	0.03975949
 0.99424354	0.38198960	0.09701334
 0.99346493	0.38530766	0.14983017
 0.98507203	0.36696389	0.20836780
 0.99938035	0.37509135	0.26235129
 0.98644191	0.37233607	0.31847240
 0.99591129	0.38731511	0.37386389
 0.00252598	0.39485102	0.42970159
 0.99063915	0.39243113	0.48442526
 0.96488640	0.38224630	0.54381161
 0.96890600	0.38299848	0.59678205
 0.97045992	0.39391433	0.65334788
 0.97454101	0.40157724	0.70602286
 0.98210624	0.40584611	0.76566096
 0.97896401	0.38811396	0.81631589
 0.97633192	0.38467216	0.87142547
 0.96305750	0.38027738	0.93060832
 0.99559115	0.58371627	0.98074467
 0.98073321	0.58601189	0.04158492
 0.98725417	0.57604793	0.09603120
 0.98911937	0.57986311	0.14753440
 0.97498060	0.58544206	0.21176118
 0.97568068	0.57458807	0.26575069
 0.99129956	0.58846489	0.31578453
 0.98755499	0.56898199	0.37724068
 0.98355606	0.60655305	0.42823781
 0.98327847	0.58843775	0.48672720
 0.99710644	0.57969487	0.54106646
 0.96676956	0.59817920	0.60037894
 0.98903846	0.59922119	0.64799174
 0.96159221	0.60531027	0.70657912
 0.98185660	0.59656196	0.76579814
 0.99027929	0.59147144	0.82328807
 0.98944836	0.58935492	0.86984713
 0.99562606	0.57972201	0.93134247
 0.97982147	0.78587711	0.98412749
 0.97876321	0.77200572	0.04494242
 0.98623455	0.78358692	0.09653742
 0.99370372	0.78287598	0.15059402
 0.97916481	0.78101452	0.21023258
 0.98289217	0.79377338	0.26694011
 0.98336540	0.79532550	0.31637698
 0.99181512	0.81115060	0.37623819
 0.98906907	0.79267170	0.43031665
 0.96885353	0.79215613	0.48438757
 0.99131405	0.79564026	0.54038658
 0.99912871	0.77857780	0.59940359
 0.97737933	0.79022413	0.64788923
 0.96411034	0.78153009	0.70740975
 0.98375062	0.77560924	0.76319771
 0.00043519	0.79012644	0.81865251
 0.00813387	0.78294110	0.87644243
 0.98999453	0.78751063	0.93500719
 0.17807476	0.98051949	0.98937509
 0.19114676	0.98830929	0.04060324
 0.17116512	0.98117019	0.09835667
 0.18488021	0.97541231	0.15168891
 0.17222609	0.97900726	0.20973510
 0.19224572	0.98895510	0.26045485
 0.18992405	0.98314257	0.31877842
 0.20212230	0.98473903	0.37454226
 0.19483602	0.98001685	0.42762124
 0.17768565	0.00308558	0.48405441
 0.18474399	0.98817871	0.54227396
 0.17641139	0.98362547	0.59657251
 0.18244349	0.99437970	0.65481468
 0.18341872	0.98457552	0.70776402
 0.19032728	0.99048008	0.75660844
 0.18969938	0.99249512	0.82009519
 0.18833557	0.96950351	0.87191541
 0.17300161	0.00225665	0.92899680
 0.18418284	0.18348059	0.98184966
 0.19373055	0.18987250	0.03635330
 0.17428564	0.17805685	0.09418693
 0.18485145	0.17891323	0.15094723
 0.18215586	0.17656932	0.20996726
 0.19054436	0.17476647	0.26015637
 0.20152479	0.17240030	0.32129142
 0.19422983	0.18833015	0.37206846
 0.18995065	0.19014113	0.42483388
 0.18772124	0.19003097	0.48444636
 0.17778713	0.19735578	0.54415230
 0.19849382	0.17413640	0.59587756
 0.18043605	0.18815974	0.65886080
 0.17957370	0.19883843	0.70427114
 0.17523265	0.20549138	0.76402533
 0.18333949	0.18485633	0.82053236
 0.19172799	0.20338570	0.87376511
 0.18123436	0.17472034	0.93148870
 0.18439883	0.37998161	0.98775056
 0.20200942	0.36831575	0.03862269
 0.19145555	0.38759297	0.09632366
 0.18816897	0.37089846	0.15325219
 0.19610974	0.39388393	0.20708643
 0.19064259	0.38189788	0.26082871
 0.19193258	0.37412372	0.31461321
 0.20088983	0.36965513	0.37373123
 0.21425271	0.39628104	0.42929155
 0.18113613	0.38518121	0.48414938
 0.18257916	0.38401929	0.54444325
 0.16868824	0.38352761	0.60120354
 0.17123621	0.38794681	0.65177104
 0.17148911	0.39188246	0.71153879
 0.18709279	0.39739194	0.76409015
 0.17509372	0.38951087	0.82114591
 0.17398444	0.36364963	0.87555602
 0.18382249	0.38280962	0.93075153
 0.18268174	0.59141175	0.98492623
 0.18757417	0.56705541	0.03925644
 0.20750642	0.58313016	0.09972005
 0.18251567	0.59044574	0.15194971
 0.18564976	0.60049653	0.20869945
 0.19323398	0.58975651	0.26487333
 0.18326188	0.57817532	0.31986382
 0.17679671	0.59365309	0.37134787
 0.18916265	0.60747564	0.43132969
 0.19945602	0.60286270	0.48542925
 0.19644241	0.58437837	0.54391110
 0.17609500	0.59718606	0.59739410
 0.17041239	0.58332553	0.65238761
 0.18145578	0.58782450	0.70327770
 0.17811926	0.58624525	0.76205955
 0.17255606	0.58932235	0.81952686
 0.19371264	0.58476368	0.87758963
 0.18724963	0.58574597	0.93176306
 0.19391506	0.80049742	0.98315666
 0.18653978	0.77616279	0.04094815
 0.19953634	0.79045749	0.09526977
 0.19207911	0.78876426	0.15602448
 0.17538243	0.77884373	0.20792008
 0.18243101	0.78275659	0.26423415
 0.17775728	0.78630041	0.31631668
 0.18194855	0.77199486	0.36918311
 0.17959486	0.79574338	0.43242413
 0.18046644	0.78955118	0.48469058
 0.18888804	0.80975587	0.54266742
 0.17241604	0.79410985	0.60021764
 0.18524327	0.79155917	0.65151476
 0.20169465	0.77670006	0.70284957
 0.17707674	0.78566003	0.75881089
 0.18713512	0.77064354	0.81346521
 0.18651319	0.79061487	0.87330080
 0.19328065	0.77956552	0.93029476
 0.38456742	0.98027821	0.98625005
 0.38077504	0.00026893	0.04072761
 0.36875860	0.97699547	0.09752755
 0.37025862	0.96860931	0.15500541
 0.38883629	0.97118171	0.20774219
 0.38190222	0.97343933	0.26694162
 0.39791782	0.97184923	0.32147081
 0.40822367	0.98253746	0.36869619
 0.40339745	0.98681469	0.42700920
 0.40029701	0.97525352	0.48336549
 0.39868899	0.00164715	0.53952730
 0.38536519	0.99019245	0.59678356
 0.39618498	0.97501755	0.65585636
 0.37404340	0.97784605	0.70693188
 0.38176981	0.98673833	0.76432532
 0.36009278	0.98226362	0.81619077
 0.37808922	0.97219742	0.87376813
 0.38807868	0.98004941	0.93142689
 0.39795418	0.19754572	0.98668640
 0.39908516	0.18573930	0.04142317
 0.37368088	0.18279082	0.10110107
 0.39189928	0.18752695	0.15746414
 0.38508841	0.18994413	0.20441514
 0.38953203	0.18653544	0.26346080
 0.39165507	0.19104201	0.31740358
 0.39928813	0.19504713	0.37449402
 0.38960530	0.18727948	0.42928251
 0.39033523	0.19480889	0.48965929
 0.39173213	0.20825589	0.53846150
 0.36520446	0.18555913	0.59973675
 0.36918353	0.20203276	0.64925804
 0.38156846	0.20664081	0.70999360
 0.38151040	0.20412215	0.76440220
 0.38762227	0.18361735	0.81572344
 0.37050175	0.17275306	0.87493493
 0.36695195	0.18132499	0.92981236
 0.39079055	0.39567647	0.98823171
 0.39062828	0.36970561	0.04067982
 0.38241725	0.38825886	0.09946438
 0.37352078	0.38574182	0.15397579
 0.37094513	0.38951032	0.20790349
 0.37343286	0.37331944	0.26085736
 0.40097593	0.38286117	0.31470516
 0.39398325	0.38138612	0.37276643
 0.39468279	0.39970655	0.43138396
 0.38348094	0.38554265	0.48108464
 0.38489955	0.38507322	0.54199357
 0.40295515	0.38056393	0.59795338
 0.36601145	0.38985548	0.65033439
 0.37133099	0.36982500	0.71245083
 0.39484180	0.40354398	0.76213191
 0.38494785	0.38552854	0.82275441
 0.37681442	0.39826949	0.87643489
 0.39102825	0.39665116	0.92201709
 0.39487870	0.57350810	0.98654670
 0.38792944	0.59204670	0.03956713
 0.37288636	0.61107916	0.09560308
 0.37823901	0.59397329	0.15059824
 0.38809876	0.57840868	0.20810851
 0.39523471	0.58995189	0.26702453
 0.38833484	0.57494626	0.31794628
 0.39744730	0.59347943	0.37544676
 0.38280039	0.57535871	0.42972873
 0.37727083	0.58008019	0.48491218
 0.38036856	0.59415238	0.54012276
 0.38011023	0.59740314	0.59459015
 0.38953854	0.58950687	0.65169566
 0.39720362	0.59690929	0.70910117
 0.38728471	0.58208275	0.76218317
 0.39101034	0.58398220	0.82099215
 0.37385942	0.57710077	0.87989309
 0.39320990	0.58247892	0.92669787
 0.39172399	0.79070170	0.98443705
 0.38993526	0.78750520	0.04050872
 0.37376825	0.80579959	0.09346469
 0.37534696	0.77323222	0.15010770
 0.38638383	0.78290311	0.21087628
 0.38097638	0.78048810	0.26617128
 0.38785509	0.78727727	0.31846185
 0.40406009	0.78223560	0.37176093
 0.38188052	0.78372802	0.42802375
 0.38398130	0.79898872	0.48107258
 0.39846703	0.79175996	0.54059009
 0.38158366	0.78528556	0.59840111
 0.38393680	0.79084823	0.64860831
 0.37156218	0.78282171	0.70615099
 0.38276891	0.78363033	0.75846869
 0.41137404	0.77102343	0.82083838
 0.39069015	0.76429396	0.87073203
 0.40430484	0.78631669	0.92942192
 0.58371085	0.98684943	0.98380036
 0.58533352	0.99378512	0.04124196
 0.57533700	0.98709364	0.10029109
 0.58984877	0.95832516	0.15587976
 0.58551803	0.97816624	0.20953461
 0.59807066	0.97697952	0.26234224
 0.61027597	0.98740748	0.31955780
 0.59242659	0.99687261	0.37528244
 0.58345578	0.99849342	0.42764838
 0.59288789	0.00164268	0.48156101
 0.58875252	0.00755340	0.54208703
 0.58102449	0.98398761	0.59128120
 0.56716938	0.98441759	0.65448453
 0.58335809	0.97684206	0.70653842
 0.58461715	0.99953872	0.75982845
 0.58040038	0.97656669	0.81756862
 0.58502418	0.99889893	0.87575501
 0.57871801	0.97702657	0.92698128
 0.57845752	0.19525607	0.98182591
 0.57941810	0.18279624	0.03990813
 0.57476174	0.16759524	0.10445133
 0.58465514	0.18173310	0.14799705
 0.57678058	0.17304611	0.21159686
 0.59426634	0.19549812	0.26012622
 0.58340693	0.18333894	0.31830507
 0.58283167	0.17804329	0.37420609
 0.58136639	0.19490712	0.43280402
 0.60468617	0.18217974	0.48620260
 0.60048025	0.19340927	0.54063079
 0.60572815	0.17292509	0.59848100
 0.58275027	0.18648443	0.65066755
 0.58712985	0.18462568	0.70340735
 0.58541492	0.17976256	0.76397257
 0.60168504	0.18184869	0.81773143
 0.58420470	0.16382674	0.87343195
 0.58363487	0.20211579	0.93261480
 0.58933864	0.38100406	0.98827461
 0.58734150	0.39122851	0.04386184
 0.57604251	0.38177035	0.09629592
 0.57460436	0.38942892	0.15127586
 0.57102797	0.37308879	0.20762913
 0.58897503	0.39260751	0.26739839
 0.58647861	0.37615070	0.32035376
 0.57731242	0.39085622	0.37047352
 0.60036628	0.39036724	0.43232011
 0.59042946	0.40066116	0.48390065
 0.57500595	0.39032003	0.54271114
 0.57108767	0.38734441	0.59243142
 0.58030812	0.39053277	0.65475438
 0.58376512	0.39130123	0.70838058
 0.58775395	0.38416094	0.76125002
 0.59383218	0.38308802	0.82148811
 0.58354804	0.39223142	0.87190486
 0.58291851	0.39465891	0.93104097
 0.57389342	0.58355889	0.98917273
 0.60068105	0.59085277	0.03960467
 0.57916303	0.58830208	0.09511027
 0.58959913	0.58915954	0.15197534
 0.58483966	0.58223470	0.20886075
 0.59143888	0.57527730	0.26266635
 0.60307978	0.59407097	0.32255621
 0.58477454	0.57199940	0.37629548
 0.58696704	0.57722016	0.42990510
 0.58981621	0.58209903	0.48138463
 0.57496796	0.59098844	0.54233125
 0.57875058	0.60474044	0.59591072
 0.59502612	0.56851527	0.65784927
 0.59106442	0.57293284	0.70828561
 0.59262739	0.58289137	0.76874832
 0.57832727	0.58672825	0.82309058
 0.58493192	0.58413958	0.87036721
 0.58165944	0.57449039	0.92921388
 0.57183659	0.78250694	0.98172906
 0.59130321	0.78710361	0.03957693
 0.57774658	0.78148124	0.09579604
 0.56160129	0.77764979	0.15269442
 0.57532615	0.76909142	0.21058684
 0.58707015	0.78720129	0.25965588
 0.60773071	0.78597479	0.32031607
 0.58980536	0.78193168	0.37621558
 0.58616927	0.79022413	0.42859810
 0.58070972	0.77853439	0.48473429
 0.57272662	0.79389277	0.53902983
 0.59268709	0.79533092	0.59629513
 0.58834007	0.78977369	0.65248710
 0.57662862	0.77731331	0.70696353
 0.58007476	0.76847275	0.76264898
 0.58580024	0.78311477	0.81644554
 0.57526102	0.77772034	0.87344552
 0.56903084	0.77073580	0.93045304
 0.77064897	0.99690996	0.98470637
 0.77421450	0.99193842	0.04320563
 0.78189369	0.98298541	0.09556494
 0.77730246	0.98224191	0.15387629
 0.77381291	0.98633386	0.20855775
 0.78747264	0.99268344	0.26300253
 0.79601472	0.98377259	0.31637246
 0.78622443	0.00300558	0.37450608
 0.78296824	0.97627765	0.42694739
 0.77050244	0.97826420	0.48014849
 0.78218133	0.96733397	0.53702033
 0.78514989	0.98652381	0.59677452
 0.77575577	0.99306333	0.65126904
 0.79855456	0.98140073	0.70770070
 0.79317098	0.97050333	0.76072391
 0.78726099	0.97097005	0.81817313
 0.79753428	0.95879731	0.87723236
 0.79053889	0.97204460	0.92765814
 0.79407729	0.19677563	0.98561991
 0.78961088	0.16889718	0.04499021
 0.77763893	0.17453636	0.09524293
 0.79351288	0.18939384	0.15102109
 0.78511733	0.18161642	0.20522316
 0.77660238	0.18542399	0.26058751
 0.79885304	0.18236806	0.31526294
 0.78692452	0.19321552	0.37540003
 0.78184485	0.18489758	0.42734387
 0.75712491	0.18617889	0.48310620
 0.79066914	0.17583287	0.53896802
 0.78738581	0.18170488	0.59206208
 0.77509910	0.17766611	0.65332225
 0.77766064	0.17657800	0.70589321
 0.80312408	0.17450055	0.76379920
 0.78261006	0.16383760	0.82139616
 0.77525106	0.17925947	0.87926295
 0.78232785	0.17813120	0.92751644
 0.78534526	0.38798480	0.98891078
 0.76971553	0.38139426	0.04218988
 0.78734782	0.39954483	0.10081781
 0.79462541	0.39384269	0.14950546
 0.77827932	0.38153536	0.20461112
 0.80547397	0.37545442	0.25879510
 0.79743660	0.37979872	0.31683827
 0.79835918	0.38612659	0.37472467
 0.78369546	0.37134781	0.42761220
 0.77345472	0.38592362	0.47831838
 0.78808046	0.38410938	0.53545404
 0.78429242	0.39317029	0.59743782
 0.78852005	0.39644385	0.65049720
 0.79119556	0.39796720	0.70961673
 0.80480645	0.36905654	0.76583885
 0.79003961	0.39371678	0.82032433
 0.78136728	0.39382804	0.87497714
 0.78523129	0.39769260	0.92929378
 0.78505763	0.57474003	0.98747715
 0.78894878	0.57962975	0.04027943
 0.78854176	0.58789506	0.09593111
 0.78802619	0.59715350	0.15226478
 0.79867938	0.58140437	0.20638243
 0.78440639	0.59087990	0.26294826
 0.79122269	0.59219323	0.31751665
 0.81649076	0.56643673	0.37784669
 0.79199332	0.57742096	0.42530874
 0.78031987	0.60165790	0.48341976
 0.78631669	0.60630884	0.54036246
 0.79371368	0.58140437	0.58835967
 0.78183942	0.59343601	0.65380465
 0.77657524	0.58953401	0.70966346
 0.78609961	0.58493192	0.76343288
 0.79079396	0.58784621	0.82184991
 0.77589144	0.58240837	0.87148125
 0.78132386	0.58385737	0.93108318
 0.78910617	0.78054780	0.98687781
 0.77532704	0.79454944	0.04060655
 0.78017877	0.78369003	0.09813929
 0.78844950	0.77914764	0.15207634
 0.78305507	0.77552783	0.20475433
 0.79745830	0.78961630	0.26358894
 0.79996015	0.77345472	0.32128539
 0.78711446	0.76924881	0.37476085
 0.78784710	0.78484598	0.42924030
 0.78774399	0.78554063	0.48663223
 0.80504524	0.78110135	0.53897556
 0.78142697	0.78204022	0.59954530
 0.78580655	0.78837895	0.65095548
 0.77976089	0.79770795	0.70546508
 0.77209255	0.78732611	0.76216809
 0.78645779	0.78781454	0.82111275
 0.79092421	0.79069627	0.87300232
 0.78410248	0.77025280	0.92954553
 0.96974898	0.08466757	0.01370059
 0.98479922	0.08408200	0.07042515
 0.98275205	0.06912141	0.12973206
 0.97423167	0.06961472	0.17970877
 0.97222965	0.07165744	0.23457263
 0.98037503	0.09300614	0.28850034
 0.98941759	0.07286224	0.34815201
 0.00734038	0.07588236	0.40451432
 0.98521048	0.08244467	0.45606018
 0.97057936	0.09659989	0.51034517
 0.97571867	0.08547022	0.56535978
 0.97003118	0.09733742	0.62421549
 0.98222563	0.09001153	0.67718142
 0.98322848	0.08225093	0.73595271
 0.98901018	0.07851553	0.79284114
 0.99259118	0.07780080	0.85018031
 0.98134255	0.07166124	0.90305126
 0.98435301	0.08324353	0.95879550
 0.98609508	0.29154066	0.01511176
 0.98680601	0.28158810	0.06795587
 0.99888649	0.29933273	0.12002499
 0.98654552	0.27503718	0.18370213
 0.98620362	0.27792651	0.23512437
 0.98719702	0.27774199	0.29037717
 0.99657994	0.28937420	0.34853491
 0.99313958	0.28576308	0.40186264
 0.99006633	0.28833059	0.45650490
 0.98167208	0.28989519	0.51164463
 0.97638076	0.27407823	0.56787278
 0.97867095	0.27566888	0.62386123
 0.97930591	0.29417112	0.67738794
 0.98563921	0.30162292	0.74098474
 0.97702597	0.28796319	0.78870457
 0.97450986	0.26843687	0.84347798
 0.97484492	0.29292617	0.90122116
 0.99411617	0.27937877	0.95412678
 0.98093943	0.47078982	0.01352617
 0.96803405	0.47567954	0.06972944
 0.00840435	0.48270424	0.12003961
 0.00123446	0.48613192	0.18287150
 0.99230898	0.47504078	0.23614646
 0.99331053	0.47526817	0.29029727
 0.98654562	0.47018308	0.34058136
 0.00526808	0.48899900	0.40168927
 0.99738347	0.50862897	0.45527629
 0.98219681	0.48844816	0.51367372
 0.97522063	0.47866004	0.57147268
 0.98714249	0.50130199	0.62821488
 0.97715682	0.47896395	0.67643520
 0.96288384	0.49931680	0.73276285
 0.97757470	0.47365473	0.79015780
 0.99171201	0.48490597	0.84731607
 0.99809349	0.47422836	0.90215129
 0.98688199	0.47772009	0.95347253
 0.98284974	0.67792341	0.01124788
 0.99053978	0.68447378	0.06738393
 0.99098094	0.69551771	0.12538836
 0.96573697	0.68263403	0.17421093
 0.97416655	0.69361826	0.23667107
 0.98434015	0.68819670	0.28992341
 0.99809909	0.68282941	0.34638824
 0.97837246	0.70429858	0.40219429
 0.99052892	0.70566076	0.45745010
 0.98325090	0.69279879	0.51237878
 0.99696879	0.69260342	0.56604720
 0.97755299	0.69324380	0.62805207
 0.98586172	0.68967827	0.67678947
 0.97609313	0.68516301	0.73418442
 0.97675523	0.70052140	0.79369438
 0.97845658	0.68562431	0.84505784
 0.99137098	0.68873397	0.90191612
 0.00544773	0.67577432	0.95513379
 0.97951756	0.89386337	0.01257924
 0.99732811	0.87558526	0.06805281
 0.99474570	0.88796423	0.12595804
 0.97235394	0.87165069	0.18056352
 0.98012539	0.87624736	0.23434952
 0.97817660	0.87497201	0.29224948
 0.99115846	0.89028155	0.34526817
 0.98508202	0.89545890	0.40408921
 0.97756335	0.90031606	0.45613104
 0.99045838	0.89304932	0.50976026
 0.98544384	0.88997764	0.56931847
 0.01741967	0.89965939	0.62046785
 0.98522676	0.88111537	0.67855927
 0.97943616	0.88220076	0.73209352
 0.97519062	0.88345983	0.78830810
 0.99854508	0.89079712	0.85350585
 0.99685680	0.87740873	0.90479996
 0.99112047	0.89029784	0.95839451
 0.17220222	0.07901210	0.01231870
 0.18385071	0.07965846	0.07105589
 0.19108272	0.09088744	0.12555630
 0.19526855	0.09159132	0.18430211
 0.18238868	0.07051289	0.23708412
 0.17402840	0.07882487	0.28847923
 0.19721684	0.08421279	0.34506918
 0.19660522	0.08188406	0.40182344
 0.18148617	0.09669758	0.45539236
 0.17371200	0.09257252	0.51658621
 0.17951400	0.08598633	0.56604870
 0.17979783	0.08149603	0.62514713
 0.17790436	0.08911173	0.68193455
 0.18729848	0.09294373	0.73563764
 0.19390041	0.08919693	0.79003418
 0.19349664	0.08065648	0.84874065
 0.18008763	0.09312228	0.90054128
 0.17382977	0.07554697	0.95758197
 0.19042714	0.28296384	0.00970320
 0.19028224	0.27027934	0.06801075
 0.18362440	0.26748498	0.12212915
 0.18505062	0.27952042	0.17985801
 0.19807648	0.27634834	0.23533693
 0.18975419	0.27330108	0.29086560
 0.18311807	0.28624988	0.34038086
 0.20540455	0.28248735	0.40136818
 0.18950618	0.29234168	0.45659233
 0.18672050	0.28120984	0.51515861
 0.17939569	0.29705774	0.57422386
 0.17693889	0.27528085	0.62487578
 0.19090688	0.30133909	0.68074363
 0.18732127	0.28789806	0.73548388
 0.17536452	0.28097431	0.79427929
 0.16460931	0.30757742	0.84440208
 0.17815454	0.29341243	0.90392260
 0.18182481	0.27182820	0.95881209
 0.17327079	0.48529237	0.01125994
 0.19384994	0.47824325	0.06722971
 0.18934065	0.48685588	0.13050390
 0.16549446	0.49474564	0.18362374
 0.19705729	0.50614287	0.23949913
 0.18385776	0.47253677	0.28760488
 0.19388630	0.48591322	0.35356091
 0.19519475	0.50192989	0.40225911
 0.19960092	0.48858709	0.45881438
 0.19114513	0.47335679	0.51407622
 0.18613059	0.48619813	0.57207869
 0.18073073	0.48573413	0.62630790
 0.17073964	0.48119119	0.67951653
 0.18440535	0.49510979	0.73594970
 0.18517761	0.49093047	0.79282607
 0.20379924	0.50118314	0.84242122
 0.17588063	0.47461368	0.90284172
 0.17049706	0.47124786	0.96175623
 0.17920466	0.68951546	0.01356481
 0.19505690	0.66553359	0.06981552
 0.18970480	0.69988101	0.12583262
 0.17763952	0.68178742	0.17967410
 0.19272438	0.67869947	0.23747758
 0.18499526	0.68555918	0.29070882
 0.17454722	0.67788542	0.34406820
 0.18933034	0.67170407	0.40157470
 0.17079066	0.69007444	0.46170124
 0.19056607	0.69143119	0.51755100
 0.18850924	0.69174052	0.57114254
 0.18882020	0.68635695	0.62554058
 0.17789784	0.68462574	0.67812209
 0.17307813	0.66717796	0.72997398
 0.17924699	0.67830329	0.78906788
 0.17744143	0.68688879	0.84740049
 0.19608098	0.68351321	0.90744411
 0.19341252	0.68843549	0.95633376
 0.19207911	0.88145184	0.01161236
 0.16441177	0.88495768	0.06585518
 0.18745857	0.87001717	0.12511324
 0.18346702	0.87488518	0.18133687
 0.17741158	0.87371295	0.23493292
 0.18797359	0.88544611	0.29178517
 0.19623456	0.88794252	0.34935650
 0.20762256	0.88441498	0.39829590
 0.20838125	0.89745604	0.45755562
 0.18117520	0.90756652	0.51384407
 0.19079780	0.90698583	0.56735721
 0.17629580	0.90373506	0.62832342
 0.17138165	0.88470803	0.67851103
 0.17028160	0.87771264	0.73230607
 0.19055684	0.87992686	0.78156355
 0.18200065	0.87502086	0.84460257
 0.19709311	0.88532128	0.90377637
 0.19298108	0.90095645	0.95594181
 0.38917711	0.07927422	0.01109566
 0.38214590	0.09829040	0.07221772
 0.36452663	0.08280665	0.13041662
 0.36000920	0.08763559	0.18225192
 0.38813675	0.08186019	0.23527211
 0.38306089	0.06174884	0.29060330
 0.39577416	0.08558039	0.34436819
 0.39948839	0.08569490	0.40305054
 0.39290925	0.09667804	0.45770034
 0.39169794	0.10443213	0.51399331
 0.37319190	0.09146705	0.56864763
 0.37318051	0.09295784	0.63114395
 0.38049609	0.07898659	0.68361541
 0.38366980	0.07774598	0.73730192
 0.37128486	0.08912476	0.79035528
 0.37424800	0.08271222	0.84907080
 0.37672650	0.07900233	0.90436128
 0.37698266	0.09436234	0.96320041
 0.40848742	0.28502121	0.01551999
 0.38608698	0.27130884	0.06845486
 0.38844283	0.29500796	0.12563604
 0.38553288	0.28223825	0.18430814
 0.37651702	0.27630927	0.23443243
 0.38990975	0.28202660	0.29163141
 0.39412489	0.28234028	0.34520636
 0.38668069	0.28949034	0.40509170
 0.38954397	0.28603877	0.46019826
 0.38526750	0.29552136	0.51430235
 0.37820264	0.27902982	0.57258069
 0.38757940	0.29028105	0.62096985
 0.37106127	0.29549748	0.68110995
 0.39176741	0.29684988	0.73635370
 0.39103639	0.29169478	0.79159595
 0.39721231	0.27373633	0.84326392
 0.37096630	0.28012227	0.90572255
 0.37373732	0.30524707	0.95707243
 0.38421955	0.49934665	0.01613233
 0.38117881	0.45748989	0.06771558
 0.36937402	0.49348007	0.12192549
 0.37946822	0.48920794	0.17709326
 0.38119563	0.48414293	0.23625048
 0.38784098	0.49577731	0.28724610
 0.39360879	0.49533176	0.34707415
 0.37818636	0.49241638	0.40442840
 0.38944194	0.48462051	0.45635415
 0.38039949	0.48205571	0.51049139
 0.37699026	0.47637202	0.57116666
 0.39503934	0.49678456	0.62398485
 0.38505096	0.47813145	0.68777309
 0.38852424	0.48856539	0.73443466
 0.39507245	0.47376001	0.79286828
 0.38487350	0.48159116	0.84907532
 0.39865752	0.48704312	0.90040410
 0.39866131	0.48647165	0.95688852
 0.38855192	0.69442688	0.01114086
 0.37742387	0.69054116	0.06683294
 0.37707654	0.68492965	0.12446095
 0.39118726	0.68843006	0.18187957
 0.38756095	0.68336125	0.23264002
 0.38770965	0.67979572	0.29369668
 0.38704050	0.69141490	0.33971002
 0.38823064	0.68691593	0.39983354
 0.38395308	0.70569874	0.45428435
 0.38846726	0.68288368	0.51396316
 0.37193230	0.69405785	0.56837176
 0.38515950	0.68903246	0.62262961
 0.37754218	0.68313874	0.67963261
 0.39884800	0.69879561	0.73136087
 0.39822716	0.67227934	0.78847694
 0.38839453	0.68123930	0.84296543
 0.38096064	0.68596078	0.90226435
 0.38215295	0.67256697	0.95949348
 0.38302670	0.88954348	0.01253510
 0.37793075	0.89500304	0.06306947
 0.36045693	0.88001911	0.12787784
 0.36405122	0.87204144	0.17955199
 0.39338737	0.89277254	0.23600928
 0.38828871	0.88173404	0.29138870
 0.37091311	0.88171234	0.34905349
 0.38684024	0.89326097	0.39948682
 0.37242616	0.90175421	0.45394517
 0.39850990	0.89823752	0.51113811
 0.39766492	0.88855577	0.56352365
 0.38243027	0.88799679	0.62363511
 0.38979524	0.88266749	0.67736985
 0.37688009	0.87432077	0.73309600
 0.39240834	0.89549147	0.78882818
 0.38962049	0.89447662	0.84177602
 0.38094056	0.88446382	0.90312362
 0.38809334	0.88803478	0.95841712
 0.58451947	0.10339666	0.01354110
 0.57993909	0.08358597	0.06896650
 0.57858777	0.06387731	0.13090836
 0.59104814	0.08785864	0.18251422
 0.59202500	0.08457911	0.23485453
 0.58514900	0.08234644	0.28836768
 0.59929716	0.08304598	0.34819121
 0.57151097	0.10504538	0.40229830
 0.58235410	0.09760009	0.45690891
 0.60147339	0.09561924	0.51390286
 0.58936577	0.10443430	0.56787579
 0.59032092	0.07712676	0.62736918
 0.58882850	0.07237489	0.68222701
 0.60987437	0.10544860	0.73762754
 0.59329491	0.09115119	0.79190951
 0.57875058	0.07286386	0.84362873
 0.58564828	0.09039196	0.90582204
 0.58531181	0.08330594	0.95808246
 0.58038410	0.29641192	0.01484855
 0.58531724	0.28032958	0.07148523
 0.58647318	0.28770920	0.12338309
 0.58313558	0.28231749	0.17829021
 0.59206298	0.28773797	0.23428621
 0.59539516	0.28982247	0.28926464
 0.59771791	0.27524775	0.34682390
 0.58871996	0.31908046	0.39858232
 0.59356626	0.30157625	0.45969325
 0.59579675	0.28955004	0.51300891
 0.59356626	0.28565943	0.56869587
 0.58365658	0.30120884	0.62279995
 0.59332205	0.29310960	0.67626033
 0.57462064	0.27347909	0.73638235
 0.60693837	0.28217856	0.78852518
 0.59104814	0.27021638	0.84667237
 0.57433301	0.27121983	0.90013727
 0.57982512	0.30016089	0.95748549
 0.59143888	0.48395516	0.01636811
 0.59159626	0.49311592	0.06798617
 0.56866180	0.48803680	0.12263823
 0.60018176	0.48699970	0.17534909
 0.59039147	0.49201370	0.23452741
 0.59695813	0.48794508	0.29206858
 0.59314296	0.49772615	0.34795604
 0.59411981	0.47088696	0.40239026
 0.57224904	0.49682201	0.45718478
 0.57613477	0.49504413	0.51173508
 0.59614408	0.49529594	0.56649342
 0.58661971	0.48087426	0.62039700
 0.57652008	0.47503481	0.68087478
 0.58350462	0.49259330	0.73569794
 0.58740120	0.48157108	0.79555464
 0.58834007	0.47700535	0.84731908
 0.58442721	0.48518654	0.90053827
 0.57705736	0.49396578	0.95965628
 0.57665033	0.70055396	0.01337804
 0.59180249	0.67588286	0.06530826
 0.56601343	0.69006901	0.12370434
 0.59004957	0.67269179	0.18157053
 0.57248240	0.68200993	0.23918859
 0.59851025	0.67861806	0.29221632
 0.59512381	0.67754352	0.34704852
 0.58064460	0.68369230	0.40086467
 0.58317900	0.67220878	0.45257636
 0.58000964	0.69231036	0.51219487
 0.57384458	0.69552856	0.56711752
 0.59570992	0.70366905	0.63002539
 0.58217501	0.67822732	0.67651510
 0.58292936	0.68088654	0.73394171
 0.57781713	0.67536187	0.79151605
 0.59984529	0.69270110	0.84834720
 0.57603165	0.68538552	0.90142015
 0.58631580	0.67517735	0.95878646
 0.57712248	0.89158403	0.00925337
 0.57119621	0.88029589	0.06733403
 0.57964060	0.88563062	0.12429497
 0.59580761	0.85786071	0.18121928
 0.58506759	0.87494488	0.23303649
 0.59466251	0.88057267	0.29195854
 0.60273245	0.89507901	0.34516867
 0.58771054	0.87089634	0.40198022
 0.60102837	0.88822472	0.45968572
 0.58954486	0.88340013	0.50941956
 0.59561766	0.86775954	0.56841548
 0.57484857	0.88181002	0.62636217
 0.57498424	0.87884146	0.67994466
 0.58471484	0.88436071	0.73471807
 0.58819354	0.87838559	0.79148741
 0.58309760	0.88783398	0.85072603
 0.59918320	0.87859724	0.90198546
 0.57914675	0.87840187	0.95975276
 0.78338069	0.10184020	0.01395480
 0.78420017	0.07829140	0.07319006
 0.78056408	0.07589972	0.11897366
 0.77895227	0.08738541	0.17700281
 0.78630041	0.07826589	0.23325056
 0.77624420	0.08602811	0.28981638
 0.78612132	0.09000773	0.35060169
 0.78359777	0.09707258	0.39944310
 0.79015357	0.08517553	0.45573004
 0.76696404	0.08281262	0.50808091
 0.77781802	0.07553611	0.56564470
 0.78206193	0.08422093	0.62407077
 0.78261548	0.08241971	0.68154261
 0.80428546	0.08498885	0.73263471
 0.79377880	0.07258275	0.78967841
 0.79734434	0.06204624	0.84724220
 0.78259378	0.08239095	0.90542557
 0.78900305	0.08151557	0.95602925
 0.78507391	0.27826624	0.01329251
 0.79622638	0.28120007	0.07109252
 0.78479171	0.29985372	0.12348092
 0.78033615	0.28309952	0.17810479
 0.78357063	0.28228872	0.23286916
 0.78802619	0.27285987	0.28911087
 0.78803705	0.29022244	0.34615458
 0.78466689	0.27641943	0.40117069
 0.78494366	0.28748181	0.45278439
 0.77901196	0.29081453	0.51163860
 0.79340434	0.29293811	0.57005563
 0.78011364	0.30038068	0.62312859
 0.77542472	0.29642061	0.68044665
 0.78958374	0.27610630	0.73402462
 0.78247438	0.28191969	0.78929098
 0.77253756	0.27698710	0.84599701
 0.77853439	0.30262312	0.89839611
 0.78610504	0.29515829	0.96065877
 0.77528905	0.48569505	0.01580189
 0.78858517	0.47965752	0.07151101
 0.77860494	0.48641358	0.12272944
 0.77517508	0.48510839	0.18105949
 0.78704391	0.48614712	0.23406008
 0.77632560	0.49279952	0.29118217
 0.79515726	0.48059802	0.34470436
 0.78768429	0.48525221	0.40054659
 0.79092963	0.49042413	0.45550392
 0.77510453	0.50435956	0.51379884
 0.78986594	0.49069765	0.56222720
 0.76966668	0.51021365	0.62270347
 0.78142697	0.48558217	0.68021902
 0.78453121	0.48712940	0.73544468
 0.79103817	0.46534384	0.78865934
 0.78072689	0.47384630	0.84683518
 0.76643220	0.50444313	0.90177140
 0.77587516	0.47313917	0.95556494
 0.78290854	0.68819670	0.01271924
 0.77964149	0.69419352	0.07003547
 0.78927983	0.68418073	0.12142123
 0.80464364	0.67607280	0.17576365
 0.79155917	0.68078343	0.23949310
 0.78055865	0.67267551	0.28754911
 0.80026406	0.67188316	0.34748117
 0.77821962	0.67219250	0.40017725
 0.78799363	0.68951546	0.45577527
 0.80310780	0.68685081	0.51146071
 0.78655005	0.67670776	0.56952047
 0.76816883	0.68052836	0.62079498
 0.78475372	0.69196303	0.68080092
 0.77995083	0.69719465	0.73328595