Mg
  1.000000
13.05841078	0.00000000	0.00000000
0.00000000	22.61783193	0.00000000
0.00000000	0.00000000	105.82515227
Mg 
1280 
Dir
 0.10343602	0.00984506	0.00339644
 0.11740326	0.03245430	0.04528819
 0.14450150	0.02347833	0.09587229
 0.09036168	0.01232426	0.14892206
 0.12654832	0.03095005	0.19293145
 0.08772124	0.03402753	0.24976009
 0.06793407	0.04466520	0.30150110
 0.05831988	0.04018298	0.34457120
 0.08631295	0.07909158	0.39761058
 0.08408757	0.04145455	0.44605558
 0.06125860	0.02245551	0.49300283
 0.11136118	0.02368786	0.55289219
 0.10656810	0.02900663	0.59904379
 0.12958238	0.03840081	0.64776566
 0.12500755	0.02249265	0.69926571
 0.13625471	0.01811420	0.74897412
 0.12147343	0.03406109	0.79946211
 0.09397009	0.00499234	0.84855725
 0.09159844	0.03836137	0.89539583
 0.11844473	0.02771901	0.94597549
 0.09018785	0.27604812	0.99948451
 0.12555739	0.28864924	0.04960730
 0.11737186	0.27221044	0.09552549
 0.11497264	0.28525767	0.14509689
 0.06544977	0.27238066	0.19928627
 0.08816234	0.25729124	0.24529518
 0.07702775	0.26233903	0.29683964
 0.09991109	0.30434438	0.35508666
 0.13685739	0.26636638	0.39812274
 0.09583938	0.28187494	0.44724812
 0.09862456	0.28953261	0.49701889
 0.11913395	0.27089732	0.54831577
 0.11834059	0.27024164	0.59501072
 0.13972451	0.26801066	0.64739524
 0.13084977	0.27158615	0.70048659
 0.19413005	0.28116046	0.74805751
 0.16292488	0.29298387	0.80150322
 0.15101608	0.26085613	0.84683743
 0.12026119	0.28575683	0.89722148
 0.09607295	0.27694653	0.94545576
 0.13861411	0.50737401	0.99760479
 0.12394770	0.56725596	0.04895717
 0.11977568	0.54373912	0.09899537
 0.09568699	0.53108096	0.14937186
 0.03768644	0.51848913	0.19912941
 0.06830747	0.53163363	0.24966371
 0.10543549	0.54168322	0.29715903
 0.06265640	0.50861639	0.34857025
 0.07319926	0.55263918	0.40090658
 0.04541165	0.50229837	0.45468208
 0.13688725	0.50255480	0.50093573
 0.12925080	0.52666852	0.54737932
 0.12068467	0.52075725	0.59773124
 0.13075481	0.55790935	0.65009214
 0.12194822	0.52045660	0.69526760
 0.11885979	0.52010290	0.74726280
 0.15360062	0.53179721	0.80321548
 0.14511184	0.51749876	0.84540677
 0.14865515	0.52090758	0.89953379
 0.15712172	0.52357804	0.94641962
 0.15768688	0.78877587	0.00512060
 0.08803521	0.79177350	0.05022095
 0.10959833	0.80517001	0.10093914
 0.08506778	0.78093692	0.14895797
 0.06779378	0.77432709	0.19783010
 0.08015830	0.77174506	0.25128431
 0.06857994	0.77280617	0.29690673
 0.05664502	0.78628668	0.34652064
 0.04838973	0.80025354	0.40001076
 0.03829708	0.76781453	0.44819874
 0.12814883	0.75996674	0.49754618
 0.12077580	0.79458986	0.54615371
 0.11812540	0.78711346	0.59622971
 0.12292001	0.78756001	0.64713349
 0.13180394	0.77692239	0.69694490
 0.16483859	0.75765441	0.74768992
 0.15253234	0.76801791	0.79889798
 0.12530851	0.75535533	0.84552678
 0.12423104	0.77924357	0.90308020
 0.16388901	0.79267545	0.95066246
 0.38995710	0.02384048	0.99838941
 0.37153602	0.03160135	0.04870685
 0.38775316	0.04406567	0.09968424
 0.35067667	0.02529540	0.14406688
 0.35682749	0.03248348	0.19317147
 0.33122331	0.02859151	0.24290445
 0.31159228	0.02395137	0.29872388
 0.32414894	0.03218085	0.34559553
 0.31782275	0.01537420	0.39308708
 0.30227568	0.03773987	0.44672178
 0.30907130	0.01563863	0.49672974
 0.33127998	0.02872353	0.54507552
 0.36593733	0.05220881	0.60000670
 0.37020355	0.03368727	0.64928893
 0.35690867	0.02845662	0.69743533
 0.37796560	0.02411814	0.75099727
 0.38167202	0.03439950	0.79459276
 0.32961362	0.02277296	0.84951827
 0.36252574	0.99563803	0.89875892
 0.34705372	0.02682560	0.94348081
 0.35765072	0.26090564	0.99621614
 0.36825308	0.27347626	0.04731711
 0.38544583	0.28199166	0.09767621
 0.35807343	0.27398780	0.14958164
 0.33479572	0.27803947	0.19588727
 0.31891400	0.26862743	0.24634975
 0.33489450	0.29861129	0.29833739
 0.33476815	0.27495650	0.35068317
 0.36436670	0.27111794	0.40111731
 0.36893540	0.26791825	0.44980138
 0.40226181	0.26512753	0.49878407
 0.35591467	0.27452454	0.55108827
 0.39027720	0.27742314	0.59873573
 0.39114178	0.27920802	0.65075834
 0.35189045	0.27261764	0.70010955
 0.45255201	0.27885829	0.75030650
 0.43354050	0.27157687	0.79833384
 0.38527889	0.25682568	0.84796760
 0.34677497	0.26569081	0.89674428
 0.34569750	0.26666526	0.94539906
 0.37064464	0.52098716	0.00028062
 0.38973272	0.52303422	0.04702389
 0.38327175	0.54612219	0.10005183
 0.35926960	0.52721676	0.14931800
 0.29330215	0.51138412	0.20126784
 0.29740985	0.51120284	0.24708398
 0.31493649	0.52926381	0.29733952
 0.33450319	0.53045314	0.34756388
 0.31179062	0.54507435	0.39491179
 0.26142232	0.51301557	0.44413732
 0.37830561	0.50333295	0.50040278
 0.37699764	0.51210479	0.54870887
 0.36894995	0.54969018	0.59811301
 0.37067374	0.51844492	0.64907443
 0.34782716	0.50530484	0.70334602
 0.43065424	0.54158153	0.74745463
 0.41100560	0.51510684	0.79828470
 0.39428458	0.52372836	0.84647929
 0.38553926	0.51670293	0.89890728
 0.39437494	0.51489462	0.95280751
 0.36670695	0.77784202	0.99986059
 0.40636568	0.78385055	0.05320474
 0.35855512	0.78725052	0.10095426
 0.32000602	0.77174948	0.14885781
 0.31754323	0.78149400	0.20222886
 0.31798586	0.77576401	0.24940857
 0.32692876	0.77838141	0.29589941
 0.31253727	0.79000941	0.34513723
 0.29759441	0.78134368	0.39658719
 0.27813798	0.78934621	0.44818740
 0.38909176	0.78265238	0.49691589
 0.39205536	0.78851059	0.54509536
 0.37081695	0.78938158	0.59924034
 0.36965065	0.77804982	0.64498750
 0.39096947	0.77598065	0.69623240
 0.36600089	0.79451912	0.74903648
 0.40235907	0.77317756	0.79841888
 0.38503077	0.77377885	0.85159717
 0.36290787	0.77579938	0.90007525
 0.41166878	0.76862363	0.94843237
 0.61776124	0.03047852	0.99595967
 0.61185164	0.02422337	0.05137191
 0.64668819	0.03137821	0.10206647
 0.63397761	0.02556859	0.14643778
 0.56413143	0.03344162	0.19692672
 0.56984499	0.03169928	0.24849291
 0.58234728	0.03245417	0.29419849
 0.61454032	0.01744035	0.34201132
 0.59648989	0.04379071	0.39383643
 0.58168104	0.04540444	0.45335536
 0.58242845	0.01229309	0.49942191
 0.59991527	0.01186060	0.54660257
 0.58425027	0.01523033	0.59834074
 0.59507548	0.02676384	0.64913868
 0.59516584	0.02626808	0.70195032
 0.63351277	0.01556568	0.74599467
 0.64135982	0.01963535	0.79634093
 0.62214998	0.02207634	0.84705005
 0.59328353	0.97958107	0.89631622
 0.60154334	0.01907128	0.94627787
 0.61065777	0.25838064	0.99717181
 0.60483930	0.27365399	0.04540820
 0.62057705	0.28490485	0.09895096
 0.58773614	0.26859294	0.14584245
 0.59810954	0.27297002	0.19392365
 0.58065948	0.27695316	0.24840881
 0.59933327	0.31802783	0.30223250
 0.59001514	0.26639114	0.34486603
 0.57904519	0.27358723	0.39885886
 0.59219993	0.25622969	0.44764500
 0.64037272	0.27233954	0.50267256
 0.63330601	0.28399583	0.54813340
 0.63274698	0.27788826	0.59862612
 0.63998753	0.27413061	0.64898182
 0.68612943	0.29081788	0.70191820
 0.68439109	0.28961927	0.75090277
 0.65716573	0.27616352	0.80167425
 0.63490191	0.25403407	0.85161418
 0.60709072	0.25769888	0.89518321
 0.61894055	0.29142227	0.94713778
 0.59760411	0.49985781	0.99552195
 0.65283748	0.51596457	0.04883697
 0.62812467	0.53286274	0.10017467
 0.58570680	0.52196869	0.15197332
 0.57694157	0.52938761	0.19739542
 0.59481740	0.51757834	0.24804311
 0.58565549	0.53066978	0.29752095
 0.55263003	0.53411839	0.34490950
 0.53940790	0.53420240	0.40046056
 0.56312978	0.52569141	0.45018315
 0.60227850	0.51802047	0.50132222
 0.61789985	0.53226587	0.54847830
 0.63764114	0.54319972	0.60161784
 0.63456420	0.52133202	0.65113632
 0.59790047	0.52197753	0.69816389
 0.63906092	0.54897835	0.74866134
 0.62305285	0.51698147	0.80163740
 0.63121081	0.52482926	0.85235786
 0.62507300	0.53747415	0.89905375
 0.65999915	0.50946970	0.94826228
 0.62604632	0.76849541	0.99856487
 0.62704338	0.76973337	0.04940621
 0.64167456	0.78254627	0.10150328
 0.61048317	0.77193517	0.14730902
 0.59567662	0.76802233	0.19717808
 0.54657264	0.77578612	0.24883120
 0.55853887	0.78234731	0.29308911
 0.54928047	0.78063627	0.34666428
 0.52406071	0.78473481	0.39570555
 0.56083471	0.79014205	0.44455027
 0.61395296	0.75951577	0.49832766
 0.62305974	0.78152053	0.54333964
 0.62281928	0.78915610	0.59715199
 0.63265662	0.77318198	0.64744154
 0.61719149	0.74451433	0.69807601
 0.62898159	0.77760327	0.74939368
 0.66630543	0.77694892	0.79584105
 0.62168897	0.77362411	0.84671081
 0.62381557	0.76091732	0.89718085
 0.64464659	0.77719651	0.95038843
 0.84817366	0.01469473	0.99966606
 0.87088699	0.02018085	0.04675174
 0.90156453	0.04264348	0.09681441
 0.84679523	0.03548903	0.14981316
 0.88374460	0.01106145	0.19801247
 0.83084383	0.03781826	0.24715485
 0.81259505	0.04952508	0.29688500
 0.83225288	0.02483041	0.34814030
 0.84669568	0.06092626	0.39398006
 0.82424272	0.02545310	0.44829796
 0.82870727	0.01099106	0.50038104
 0.86328269	0.05471612	0.55089928
 0.83502504	0.03894980	0.59723798
 0.85877985	0.04031646	0.64895631
 0.88542934	0.02312653	0.69998765
 0.88123281	0.03278404	0.74758598
 0.86444669	0.04543229	0.79347110
 0.84978181	0.02142173	0.84681948
 0.83030778	0.00797645	0.89927581
 0.90514077	0.02947966	0.94753466
 0.83802694	0.25226556	0.99886730
 0.93468495	0.27551801	0.04980158
 0.85020300	0.28362223	0.09854746
 0.84565421	0.28669017	0.14674300
 0.83134925	0.26738858	0.19586459
 0.83571425	0.27600391	0.24744873
 0.83838686	0.28784457	0.30001563
 0.82320124	0.29105796	0.34807888
 0.83052220	0.28873943	0.39404621
 0.84604476	0.25091928	0.44376123
 0.86554943	0.26571689	0.49800637
 0.86017358	0.29875012	0.54903299
 0.87206630	0.28405906	0.59854202
 0.90193977	0.27605564	0.65233736
 0.91718665	0.29069851	0.70090142
 0.91220901	0.26103032	0.74698499
 0.89958879	0.27131778	0.80234423
 0.90323395	0.25717231	0.85313083
 0.85189539	0.25787043	0.89562167
 0.84422984	0.27861512	0.94885760
 0.82912080	0.51439944	0.00006859
 0.89631121	0.53891549	0.04765531
 0.89453458	0.53478158	0.09458810
 0.86344351	0.53093948	0.15412026
 0.82299448	0.53090853	0.19816083
 0.84027836	0.54325278	0.25061717
 0.84154957	0.52550130	0.29640779
 0.81081842	0.51959445	0.35061797
 0.82156245	0.55507973	0.39786005
 0.81571182	0.54894298	0.44895092
 0.86822969	0.53582501	0.49912992
 0.83572191	0.53074053	0.54503394
 0.84365549	0.51883841	0.59824719
 0.88955695	0.53713371	0.64841674
 0.89711529	0.52526255	0.69971362
 0.88513068	0.53616103	0.75128453
 0.87957104	0.50947854	0.80105153
 0.85515000	0.51554455	0.84974222
 0.86142948	0.51165824	0.89616786
 0.90392316	0.51536328	0.94538017
 0.87853723	0.76306164	0.00009267
 0.85350355	0.79598699	0.05142256
 0.87519838	0.78834258	0.10010758
 0.83402186	0.78506640	0.14862535
 0.83412907	0.78466407	0.19824777
 0.84664973	0.79637164	0.24953519
 0.82400532	0.77130293	0.29591169
 0.80127668	0.76760673	0.34446537
 0.81535190	0.79264008	0.39525859
 0.79857344	0.77372580	0.45011605
 0.88745102	0.77152841	0.49535105
 0.85345761	0.79495241	0.54554989
 0.85614553	0.78552180	0.59838137
 0.87909625	0.79227753	0.64622161
 0.88891368	0.75708406	0.69783788
 0.90853322	0.77754137	0.74714752
 0.90043116	0.77610445	0.79594216
 0.88348423	0.76625381	0.84772852
 0.86956983	0.77373464	0.89862191
 0.93375834	0.75556314	0.95298705
 0.00299907	0.14467965	0.99816389
 0.99735720	0.14328296	0.04905318
 0.98050115	0.15267865	0.09423034
 0.02390306	0.13310515	0.15066928
 0.96825718	0.13982861	0.19924847
 0.95234406	0.15186955	0.24732495
 0.96484176	0.16270702	0.29748693
 0.98804519	0.17394505	0.34557474
 0.95539191	0.17825095	0.39900155
 0.97868724	0.14456602	0.44586565
 0.97261453	0.14634205	0.49999078
 0.94471680	0.17380888	0.54740200
 0.96638099	0.16497426	0.60065116
 0.99268324	0.15494235	0.65179684
 0.00202852	0.17141829	0.69813649
 0.05080588	0.14929061	0.74888813
 0.02554714	0.15861644	0.79748338
 0.01455269	0.12604745	0.84845803
 0.98856530	0.15737185	0.89805777
 0.99352440	0.15713266	0.94822448
 0.94806330	0.39672812	0.99760249
 0.00373333	0.42413040	0.04893345
 0.98514697	0.41237418	0.09904640
 0.98958817	0.39986680	0.14622800
 0.96834908	0.39020981	0.19427990
 0.95023814	0.41600893	0.24668521
 0.96112768	0.39653093	0.29555923
 0.95320941	0.39297887	0.35239259
 0.94896693	0.43265066	0.39936725
 0.95904473	0.38815215	0.44567382
 0.95631851	0.39078105	0.49802243
 0.00986935	0.40932173	0.54909158
 0.98508509	0.40208761	0.59979786
 0.02409581	0.39341127	0.64934279
 0.01458776	0.41486204	0.70194654
 0.04922988	0.40079173	0.75230792
 0.03762939	0.39106754	0.80570449
 0.03512801	0.38733509	0.85041597
 0.99540360	0.40877879	0.89944118
 0.98499749	0.39095436	0.95178696
 0.01534038	0.64293519	0.99592045
 0.96835673	0.67171779	0.04889452
 0.98837784	0.66332618	0.10066794
 0.96808871	0.67949484	0.15427996
 0.96076775	0.66762367	0.19975024
 0.95637212	0.66005442	0.24858457
 0.94757319	0.65771114	0.29692468
 0.96607468	0.64614062	0.34553222
 0.93422547	0.68677670	0.40064955
 0.91943807	0.66553682	0.44890840
 0.01703132	0.63353552	0.49931135
 0.99493202	0.67888470	0.54432617
 0.01093311	0.63885876	0.59831712
 0.96674857	0.67866363	0.64705884
 0.01287630	0.65140196	0.69844549
 0.99551913	0.64354090	0.74495239
 0.02248658	0.65581441	0.79763363
 0.00494356	0.63861559	0.84998224
 0.00730650	0.65912153	0.89908399
 0.02404198	0.63360626	0.95295870
 0.02232890	0.90416712	0.99978629
 0.01766769	0.90663862	0.05224883
 0.99202353	0.90734603	0.09813357
 0.96096686	0.89350739	0.14878410
 0.96537015	0.90250914	0.19855393
 0.92266970	0.91159931	0.24612674
 0.90988867	0.91298317	0.29953276
 0.94398164	0.89371519	0.34644788
 0.94153111	0.90656788	0.40081020
 0.96310341	0.91659095	0.44549617
 0.97138926	0.90015701	0.49882659
 0.97867958	0.92108740	0.54575872
 0.99855112	0.90895980	0.59802135
 0.00284982	0.92446969	0.65004867
 0.03893514	0.90183710	0.69468835
 0.05972182	0.89301221	0.74565638
 0.00755485	0.90927371	0.80102224
 0.00790211	0.87584434	0.84850433
 0.02554469	0.91003417	0.90052882
 0.00075469	0.89872893	0.94934898
 0.22679942	0.14275993	0.99696062
 0.27556952	0.14476056	0.04616284
 0.24710740	0.14093791	0.09879976
 0.25130470	0.17161857	0.14809145
 0.20406541	0.17343395	0.19588821
 0.21594511	0.14913322	0.24584609
 0.23197233	0.16502554	0.29723369
 0.20782161	0.16417444	0.34524118
 0.28013822	0.15297753	0.40073082
 0.21762296	0.15447590	0.44781698
 0.22483823	0.15398470	0.49843538
 0.23824798	0.15757434	0.54999874
 0.24652311	0.16304481	0.59910615
 0.26272569	0.14534771	0.64975574
 0.25171823	0.14509348	0.70185488
 0.30399488	0.15816458	0.75043407
 0.28673780	0.14893028	0.80007445
 0.23953604	0.14509348	0.84793452
 0.23359504	0.14673776	0.89352860
 0.23570632	0.14676119	0.94444088
 0.25718214	0.37858624	0.00138609
 0.27256073	0.41164069	0.04998755
 0.26903044	0.39373977	0.09839249
 0.23862705	0.39493750	0.14697168
 0.18550649	0.38794700	0.19840085
 0.18187129	0.41494207	0.24820942
 0.22391699	0.40326588	0.29696154
 0.22354481	0.40472447	0.35009824
 0.22256077	0.43244507	0.39837221
 0.18742327	0.40217338	0.45369176
 0.28993497	0.37658605	0.49755657
 0.26508203	0.40512327	0.54979179
 0.23156646	0.37732750	0.60244090
 0.29879899	0.38903021	0.64938343
 0.25559312	0.39163789	0.69708664
 0.28824105	0.41379607	0.74860842
 0.27941915	0.40422398	0.80003003
 0.27748782	0.40065821	0.85092058
 0.24336116	0.39510286	0.89587587
 0.22521347	0.38229261	0.94790320
 0.25665910	0.66097847	0.00228626
 0.27300336	0.67911903	0.05204623
 0.23839042	0.65815327	0.09774425
 0.25390762	0.63390249	0.14884930
 0.21862078	0.66541745	0.20315114
 0.20793265	0.66033739	0.25273198
 0.20727407	0.65823727	0.29791405
 0.19008056	0.64810368	0.34815164
 0.17683239	0.67355704	0.39496659
 0.14612574	0.64011883	0.44687580
 0.27288160	0.62183679	0.49945310
 0.24728507	0.65395304	0.54682369
 0.24346837	0.65951060	0.59862045
 0.23560064	0.67807560	0.64623862
 0.23138650	0.66151787	0.69905971
 0.29806077	0.65751218	0.74589640
 0.27198486	0.66389652	0.80140589
 0.25814244	0.63594071	0.84770490
 0.23615967	0.64884645	0.90047969
 0.25945730	0.65075203	0.94913164
 0.26092915	0.89454639	0.00330403
 0.27648617	0.88744138	0.04973241
 0.24724678	0.90834966	0.10063581
 0.23254361	0.90280536	0.15021665
 0.21333760	0.91117045	0.19424399
 0.14664955	0.90733277	0.24759993
 0.14367675	0.91491528	0.29793957
 0.20003966	0.90838945	0.35007084
 0.17663175	0.90139055	0.39842702
 0.20049990	0.91681201	0.44709503
 0.21991420	0.90144361	0.49734490
 0.22244667	0.90475515	0.54491488
 0.26761067	0.92521688	0.59980259
 0.25469715	0.90988385	0.64911033
 0.25216928	0.90025428	0.69841525
 0.26299065	0.90899959	0.75189025
 0.25398420	0.91302297	0.79983065
 0.24009736	0.86149283	0.84701319
 0.27253087	0.88176887	0.89919266
 0.29069923	0.89858303	0.95023723
 0.48133729	0.14799252	0.99447923
 0.50058771	0.15655435	0.04503854
 0.50953291	0.15223917	0.09587702
 0.48155400	0.14631376	0.14682332
 0.45474599	0.16722469	0.19587309
 0.45189036	0.15667373	0.25149125
 0.46512551	0.17443582	0.29552237
 0.46788006	0.14543923	0.34616062
 0.51788844	0.15712868	0.39732898
 0.45331703	0.13700208	0.44757791
 0.45503393	0.13872859	0.50041317
 0.46370727	0.14762556	0.54589480
 0.49911204	0.15134519	0.60079951
 0.51063871	0.14514079	0.64932011
 0.49943903	0.17496549	0.70474645
 0.55550940	0.14171252	0.75225500
 0.51965588	0.13939886	0.79960764
 0.49327059	0.13607759	0.84945874
 0.46230664	0.14044317	0.89677357
 0.50815985	0.16213888	0.94538017
 0.49819309	0.39219188	0.99934866
 0.52167221	0.40612292	0.04947718
 0.50175401	0.41204745	0.09944422
 0.46376394	0.39415758	0.14793175
 0.46984048	0.38953955	0.19812303
 0.45605473	0.39365135	0.24728809
 0.45255890	0.41598328	0.29726581
 0.45789569	0.40064008	0.34393619
 0.43766045	0.39430879	0.39989170
 0.48441653	0.40949725	0.45227150
 0.51303104	0.38211885	0.50106897
 0.52289747	0.39215253	0.55036254
 0.49738901	0.41247234	0.60152429
 0.52267616	0.38788598	0.65340704
 0.50108777	0.39289707	0.70269684
 0.56351344	0.40977314	0.75464763
 0.51940471	0.39111618	0.79802673
 0.52070042	0.39748018	0.85186554
 0.52113080	0.39536637	0.89729046
 0.45077997	0.38699421	0.94621173
 0.50386453	0.66411317	0.99886609
 0.49959908	0.64611409	0.04882809
 0.48729130	0.66777400	0.09789733
 0.46245980	0.67333156	0.14784576
 0.44396980	0.64078202	0.20016319
 0.45968917	0.64502646	0.24565238
 0.45144008	0.64013209	0.29484673
 0.42452869	0.66175662	0.34625228
 0.41966516	0.65607526	0.39951655
 0.37996124	0.64283350	0.45105156
 0.49410147	0.64557028	0.49417552
 0.50091700	0.64828495	0.54655532
 0.50864765	0.67059920	0.59986495
 0.51133251	0.64356301	0.64499506
 0.46361155	0.63601145	0.69695813
 0.52588635	0.66586842	0.74496656
 0.49520115	0.65358165	0.80181033
 0.48228304	0.64602567	0.85121446
 0.47406688	0.65837875	0.89910005
 0.51493173	0.64377965	0.95195705
 0.53331758	0.90574994	0.99910644
 0.51283040	0.89509021	0.04658325
 0.51581238	0.92096802	0.09941398
 0.49041037	0.88877661	0.14687057
 0.45020946	0.90241187	0.19875332
 0.44962669	0.88667208	0.24844944
 0.43614419	0.90787658	0.29419660
 0.49561544	0.90458272	0.34307723
 0.46772920	0.89896326	0.39739796
 0.44827660	0.92474381	0.44439057
 0.45939740	0.91170100	0.49712189
 0.46208915	0.92193629	0.54904433
 0.48608672	0.90128002	0.59466865
 0.51807070	0.90518844	0.64579071
 0.46917654	0.89767225	0.69631839
 0.49967106	0.91573764	0.74696420
 0.50329095	0.91121466	0.79657339
 0.50485470	0.89044786	0.84414147
 0.49310977	0.87656943	0.89649954
 0.53196979	0.89902958	0.94887650
 0.74600349	0.12995675	0.99834337
 0.73211053	0.13856987	0.04503013
 0.75493413	0.16175909	0.09722452
 0.73436195	0.16074043	0.14685923
 0.69940976	0.15633903	0.20146345
 0.71356922	0.14988218	0.24824439
 0.71708649	0.17806747	0.29526818
 0.72321971	0.16155041	0.34361963
 0.71860046	0.17904280	0.39852057
 0.74104576	0.13573892	0.44815716
 0.72895854	0.13207588	0.50146113
 0.66016915	0.15161444	0.54766092
 0.73972171	0.16524882	0.60089023
 0.75638071	0.15714857	0.65169573
 0.74700744	0.14644065	0.69896238
 0.77935977	0.15408594	0.74550897
 0.75945842	0.14962796	0.80027950
 0.73144735	0.13749461	0.84809044
 0.74069350	0.13847791	0.90253213
 0.73193976	0.15948699	0.94637237
 0.71182628	0.39695891	0.99540021
 0.77529342	0.39553482	0.04749910
 0.77213071	0.41673756	0.09658384
 0.70159456	0.39549237	0.15119562
 0.71595619	0.38406776	0.19857850
 0.69466340	0.38935253	0.24459875
 0.73292839	0.40913338	0.29934282
 0.68956477	0.40247889	0.35066900
 0.67530806	0.40362666	0.39822007
 0.72112604	0.37279170	0.45212692
 0.72737258	0.40765578	0.50025536
 0.75328845	0.42637730	0.55192739
 0.75465309	0.40883583	0.59975345
 0.77167124	0.39835648	0.65215120
 0.76538563	0.41177466	0.70220074
 0.80976929	0.40405553	0.74895616
 0.76915945	0.40548758	0.80201349
 0.76417032	0.39860982	0.85272072
 0.75048336	0.38669268	0.89588721
 0.75189012	0.38800713	0.94786540
 0.73026038	0.64012767	0.99553769
 0.74705951	0.66963978	0.04866679
 0.74675090	0.65892699	0.09981181
 0.72569933	0.67052404	0.15377913
 0.70897065	0.65849371	0.20169874
 0.72651413	0.65717616	0.24715296
 0.69268230	0.64962018	0.29620085
 0.66950337	0.64479655	0.34630331
 0.69476601	0.67186369	0.40046623
 0.67929476	0.64251959	0.44607354
 0.71631151	0.64236926	0.49878312
 0.73585830	0.65852908	0.54637672
 0.77996474	0.65280793	0.59901544
 0.73531306	0.64619810	0.65026223
 0.75455277	0.63993755	0.70211664
 0.74854285	0.66658467	0.74801877
 0.75410938	0.64742280	0.79507941
 0.72851055	0.65984220	0.84689035
 0.75219720	0.64880666	0.89924841
 0.74824036	0.66739376	0.95054907
 0.75577037	0.88099514	0.99705683
 0.72350917	0.90250030	0.05064949
 0.75196057	0.90348182	0.09909270
 0.71627552	0.90284958	0.14643305
 0.73190606	0.89098283	0.19739164
 0.71121978	0.91261179	0.25167363
 0.67378413	0.91793502	0.29437236
 0.73199489	0.89313158	0.34719062
 0.70305569	0.90177963	0.39694439
 0.70461178	0.91774490	0.44399747
 0.72269284	0.89402468	0.49571958
 0.72402302	0.90901286	0.54592504
 0.74291736	0.92111835	0.59722191
 0.74792945	0.90960973	0.65008458
 0.73252176	0.92276749	0.69752227
 0.78743119	0.90174868	0.74501098
 0.76408532	0.90677568	0.79598563
 0.74562595	0.89152665	0.84596807
 0.73692352	0.88502294	0.89726117
 0.74099752	0.92588008	0.94860246
 0.13134906	0.17807233	0.02508373
 0.13902534	0.18501287	0.07162938
 0.17403649	0.20129913	0.12218929
 0.10021128	0.18776601	0.17441506
 0.07174372	0.18560267	0.22110717
 0.06781859	0.16718004	0.27295496
 0.10831563	0.18104344	0.32064400
 0.09251279	0.19388375	0.37667416
 0.10755826	0.20063815	0.42313570
 0.11632426	0.18614958	0.47373993
 0.10932341	0.18651655	0.52501035
 0.13429965	0.19370866	0.57008753
 0.14136253	0.18706877	0.62338866
 0.14352282	0.19122655	0.67646489
 0.10636593	0.20004481	0.72169327
 0.13630985	0.22046499	0.77387557
 0.13188358	0.19519731	0.82173187
 0.08703433	0.20687482	0.87258273
 0.10885015	0.20266885	0.92011113
 0.12215422	0.18580207	0.97450368
 0.11345638	0.44977786	0.02042624
 0.11654175	0.42950403	0.07387705
 0.11280852	0.44202866	0.12360200
 0.09790089	0.42898276	0.17160004
 0.06341200	0.44094898	0.22032286
 0.10325376	0.46112731	0.27284629
 0.07438577	0.45992030	0.31862935
 0.04985622	0.47222475	0.37529641
 0.12259149	0.44497192	0.42566251
 0.10143424	0.41784465	0.48111908
 0.14111748	0.43119296	0.52554047
 0.17095189	0.43662142	0.57484255
 0.13927192	0.43488430	0.62410872
 0.16177007	0.44784133	0.67191399
 0.18428582	0.45675908	0.72643694
 0.11598731	0.45564491	0.78324291
 0.15392838	0.42292957	0.82559201
 0.10290456	0.43863355	0.87461155
 0.09454520	0.43873790	0.92288079
 0.09039538	0.41330266	0.97782992
 0.09364463	0.69332905	0.02602604
 0.12358089	0.69262607	0.07606745
 0.11037867	0.70692894	0.12518668
 0.12424176	0.68329272	0.17529009
 0.09040227	0.66772094	0.22529805
 0.10477921	0.71455567	0.27578226
 0.06522547	0.69492072	0.32102765
 0.06604931	0.69678208	0.37106679
 0.08763011	0.70516043	0.42184867
 0.03799038	0.69287808	0.47596813
 0.13838054	0.68740010	0.52010320
 0.10598074	0.70149076	0.57226565
 0.12145659	0.68572443	0.62355875
 0.12541419	0.69740106	0.67016204
 0.15553884	0.69320968	0.72321370
 0.11013668	0.68122798	0.76806221
 0.10260896	0.68376138	0.82274013
 0.12426474	0.69191424	0.87187496
 0.08909660	0.68089196	0.92756021
 0.14238027	0.68663964	0.97680937
 0.12769165	0.91182480	0.02624565
 0.17438799	0.95205854	0.07575874
 0.12212359	0.94961799	0.12475673
 0.04927958	0.94815012	0.17448498
 0.09420901	0.96370422	0.22035026
 0.05588605	0.95057741	0.27388763
 0.07117811	0.95274384	0.32751666
 0.03226587	0.93682277	0.37622814
 0.05800269	0.96516324	0.42096797
 0.09375413	0.92405409	0.47204846
 0.10479989	0.92328920	0.52281711
 0.10199403	0.93975409	0.57215982
 0.10385184	0.94468383	0.62276405
 0.14824162	0.95515786	0.67457404
 0.16151429	0.93293204	0.72144286
 0.14597795	0.95076752	0.77606881
 0.13925508	0.93241475	0.82447696
 0.15396284	0.94068698	0.87541759
 0.15489710	0.94166408	0.92560509
 0.15395059	0.94413559	0.97487221
 0.36241470	0.16716545	0.02044117
 0.39080100	0.20423929	0.07332831
 0.42849318	0.20707776	0.12093722
 0.35756495	0.18647941	0.17197518
 0.37414201	0.22379952	0.21824490
 0.32925293	0.20159359	0.27346334
 0.36550007	0.19542722	0.32147367
 0.32119069	0.20516467	0.37513861
 0.38835583	0.19430996	0.42229847
 0.32824515	0.19136273	0.47089372
 0.34540114	0.18514595	0.52382348
 0.37548444	0.20156176	0.57538779
 0.39613626	0.17537402	0.62692752
 0.37390385	0.20145653	0.67627401
 0.35389758	0.20436353	0.72790068
 0.39851710	0.19742255	0.77437545
 0.39332275	0.20282669	0.81910678
 0.38464635	0.19290620	0.87357210
 0.34840993	0.19888732	0.92115247
 0.34696948	0.18555757	0.96972220
 0.38257335	0.44347752	0.02582997
 0.37756432	0.44592249	0.07566046
 0.36257092	0.44180362	0.12311534
 0.35407142	0.44152906	0.17228324
 0.32592557	0.42317540	0.22146342
 0.34158751	0.43571683	0.27019474
 0.31248289	0.43449655	0.32227783
 0.34738301	0.46573429	0.37053951
 0.39249186	0.49195255	0.42362046
 0.34555890	0.44631599	0.47579237
 0.39055442	0.41820852	0.52597137
 0.40477207	0.46529659	0.57833604
 0.37257214	0.43494443	0.62455757
 0.39518055	0.44639557	0.67721329
 0.44551057	0.45094950	0.72953450
 0.39391700	0.44399923	0.77156326
 0.38706548	0.44398597	0.82505055
 0.38408502	0.45327952	0.87673769
 0.33563349	0.45003871	0.92498898
 0.31747125	0.43656881	0.97336028
 0.37090271	0.70295420	0.02641111
 0.40046297	0.73047673	0.07719110
 0.34822844	0.68816057	0.12066224
 0.33501167	0.68202381	0.17635599
 0.32293669	0.69304167	0.22562689
 0.35739035	0.69201151	0.27260816
 0.34330441	0.69645933	0.31888638
 0.32196874	0.67411855	0.37287544
 0.33273804	0.71471926	0.42546407
 0.33425354	0.70285693	0.47489561
 0.38594896	0.68700219	0.52487522
 0.35995421	0.69241385	0.57324746
 0.37029621	0.70093809	0.62092327
 0.36593197	0.70556718	0.67335693
 0.41832962	0.70159244	0.72350002
 0.37218771	0.70204342	0.77296747
 0.38470838	0.67551125	0.82365674
 0.37379970	0.68664848	0.87677077
 0.36450377	0.69600836	0.92274661
 0.37431201	0.68491976	0.97693221
 0.40043770	0.94265887	0.02474204
 0.39639203	0.95643119	0.07489108
 0.36388348	0.93426284	0.12204471
 0.36729278	0.93357312	0.17012496
 0.32668830	0.95681143	0.21831672
 0.31007602	0.94521880	0.26854580
 0.31760297	0.96613593	0.32368581
 0.32275290	0.93105299	0.37141454
 0.30475761	0.97129557	0.42036793
 0.35364104	0.94425054	0.47020107
 0.33233753	0.91954879	0.52136093
 0.33333306	0.93826411	0.57319738
 0.40970836	0.95109912	0.62172554
 0.37850624	0.95751883	0.66985021
 0.39133169	0.94961356	0.72180572
 0.42524930	0.94725260	0.77454176
 0.36508424	0.93362176	0.82361894
 0.38136417	0.92342626	0.87327254
 0.38846304	0.92345721	0.92523656
 0.41665101	0.94860109	0.97417294
 0.62393197	0.18981085	0.02159307
 0.65947075	0.21298107	0.06827517
 0.68505120	0.21151762	0.12063484
 0.61607037	0.19858358	0.16928679
 0.60004162	0.18355650	0.22423970
 0.59612078	0.21835161	0.27320915
 0.59438703	0.20408499	0.31859912
 0.57070574	0.19711615	0.37276866
 0.60153568	0.17858476	0.42489993
 0.58976549	0.18889521	0.47891639
 0.57441982	0.18130739	0.52324895
 0.60831369	0.21977305	0.57383522
 0.62985842	0.19013051	0.62403501
 0.63794593	0.18461142	0.67476681
 0.64934778	0.21629836	0.72760396
 0.66824058	0.19243843	0.77371020
 0.63965747	0.19223107	0.82373139
 0.60856180	0.17673047	0.87340956
 0.60866059	0.18715012	0.92420089
 0.61227282	0.19126104	0.97067661
 0.63255936	0.41249798	0.02510963
 0.62992045	0.44565279	0.07192770
 0.61982121	0.46078245	0.12554766
 0.60602091	0.43943956	0.17593454
 0.58082948	0.45023325	0.22189904
 0.59949485	0.45461033	0.27446122
 0.57664674	0.44403018	0.32077346
 0.54764704	0.44086719	0.37272047
 0.60861541	0.44458726	0.42627484
 0.57221588	0.44691728	0.47779945
 0.63844063	0.45419473	0.52508500
 0.62716897	0.46684404	0.57594814
 0.62693540	0.44984418	0.62808698
 0.64118905	0.42394603	0.67715565
 0.66379517	0.44950374	0.72780524
 0.67128383	0.43516328	0.77604235
 0.66378062	0.43972031	0.82882659
 0.64974139	0.45290371	0.87564249
 0.62486624	0.44070714	0.92686661
 0.59065074	0.42196087	0.96929698
 0.61371863	0.69952328	0.02117219
 0.64609853	0.71288442	0.07415940
 0.62661607	0.70429385	0.12405746
 0.57851374	0.67773074	0.17594588
 0.56970485	0.71008132	0.22307457
 0.59167690	0.68946042	0.27107733
 0.57587329	0.68886355	0.31882780
 0.55412256	0.69300188	0.37109420
 0.55016189	0.72705466	0.42204711
 0.58360394	0.68316893	0.46903594
 0.61984878	0.68845237	0.52261678
 0.61571428	0.70767172	0.57037385
 0.62646444	0.67363221	0.62234543
 0.62536477	0.67341556	0.67677767
 0.64922448	0.68602066	0.72246435
 0.63024438	0.68325735	0.77536765
 0.61756060	0.69064533	0.82295747
 0.64383332	0.69369602	0.87232853
 0.61891605	0.67068320	0.92591315
 0.63607434	0.68954001	0.97431469
 0.64072575	0.93757439	0.02424877
 0.63394851	0.95498101	0.07630908
 0.64209957	0.94258371	0.12214204
 0.60277396	0.94181883	0.17049255
 0.54813102	0.95905744	0.22429734
 0.54862878	0.95090900	0.27007190
 0.58321875	0.94135902	0.31795560
 0.57234377	0.94895479	0.36815539
 0.57853748	0.94207969	0.42198097
 0.59710558	0.92869202	0.47075009
 0.56758974	0.91388070	0.52527116
 0.62517255	0.95108585	0.57125361
 0.64503332	0.94514806	0.62219424
 0.60544887	0.92620283	0.67143773
 0.63823080	0.95002917	0.72433725
 0.69766070	0.94721280	0.77083470
 0.63524346	0.95098859	0.82207205
 0.63716865	0.93425400	0.86827751