Mg2
1.0
        3.1720230579         0.0000000000         0.0000000000
        0.0000000000         5.4941053391         0.0000000000
        0.0000000000         0.0000000000         5.1412048340
   Mg
    4
Direct
     0.500000000         0.166666672         0.250000000
     0.000000000         0.666666687         0.250000000
     0.499999970         0.833333373         0.750000000
     0.000000000         0.333333373         0.750000000
