Mg
  1.000000
13.24000000	0.00000000	0.00000000
0.00000000	22.88000000	0.00000000
0.00000000	0.00000000	107.20000000
Mg 
1280 
car
 2.21421000	0.98049100	1.30634000
 1.61365000	0.79310200	6.79470000
 2.04528000	1.09928000	12.27590000
 2.31354000	1.46255000	17.35340000
 1.77250000	1.12398000	22.41440000
 1.67924000	1.18601000	28.14110000
 1.79190000	0.77500600	33.19610000
 1.22798000	1.19268000	39.01200000
 1.88298000	0.90694600	44.43180000
 1.84574000	1.01750000	49.53240000
 1.80209000	1.08661000	54.79110000
 1.20310000	1.26416000	60.80340000
 1.58901000	1.15069000	65.70170000
 1.62687000	1.39423000	70.85930000
 1.24669000	0.79134100	76.25670000
 1.22795000	0.48713800	81.65070000
 1.29327000	0.38601400	87.02670000
 1.48104000	0.80512000	92.40970000
 1.58435000	0.91517000	98.37040000
 1.99094000	0.49118600	103.18900000
 2.24146000	6.75392000	1.79026000
 2.20565000	6.43595000	6.86357000
 1.93295000	7.09088000	12.36520000
 2.25453000	6.61841000	17.54550000
 2.12252000	6.83231000	22.64050000
 1.93557000	6.50715000	28.01220000
 1.69511000	6.82391000	33.32680000
 1.68437000	6.94760000	38.98340000
 1.32118000	7.18453000	44.44450000
 1.28521000	6.67647000	49.65670000
 1.42227000	7.44363000	54.91180000
 1.69549000	7.00207000	60.51900000
 1.11439000	7.35770000	65.54120000
 0.89929000	6.39266000	70.53010000
 0.90256100	6.52984000	76.30820000
 1.43391000	6.36981000	81.49650000
 1.56526000	6.40850000	86.98440000
 1.72417000	6.59650000	92.02720000
 1.56590000	5.71335000	97.86870000
 1.13032000	6.67650000	103.01800000
 1.76386000	12.55180000	1.81966000
 2.49064000	12.90370000	6.75011000
 2.46403000	12.39150000	12.25060000
 1.76704000	12.09960000	17.61780000
 2.04791000	12.40880000	22.89350000
 1.97893000	12.72850000	27.89230000
 2.03795000	12.57640000	33.44560000
 1.71271000	12.50120000	39.00260000
 1.51095000	12.68610000	44.12210000
 0.75654900	12.05230000	49.50340000
 1.78587000	12.63740000	55.15430000
 1.51302000	12.47580000	60.70290000
 1.20470000	12.96430000	65.25100000
 1.27936000	12.06230000	70.74850000
 1.19311000	12.04840000	76.57080000
 1.16977000	12.14210000	81.52670000
 1.62806000	11.85570000	87.04070000
 0.79198500	12.03930000	91.78660000
 1.80845000	11.97880000	97.87400000
 1.17495000	12.05550000	103.34000000
 1.90312000	18.66880000	1.43560000
 1.70259000	17.68590000	7.10848000
 1.85404000	17.98680000	12.21980000
 1.77753000	17.96360000	17.74580000
 1.71834000	17.86810000	23.24950000
 0.81920600	17.70530000	28.19790000
 2.04888000	17.92840000	33.67390000
 1.62896000	18.39260000	38.51670000
 1.66488000	18.81700000	44.70360000
 1.71526000	18.30560000	49.55190000
 1.96154000	18.17250000	54.99380000
 1.50034000	18.32960000	60.18700000
 1.61741000	18.50910000	65.47610000
 0.85046800	17.97350000	71.04810000
 0.31235800	17.36870000	76.02160000
 1.00520000	17.80040000	81.20950000
 0.95809500	17.70570000	87.34240000
 1.37453000	18.06090000	92.66200000
 1.39111000	17.99020000	97.67060000
 1.72666000	18.05990000	103.24600000
 5.16687000	1.13602000	1.64652000
 5.33206000	1.27461000	6.79381000
 5.78695000	0.77248200	12.33910000
 5.47016000	0.67952700	17.26680000
 5.71138000	0.89659600	22.82980000
 5.06042000	1.14905000	28.34690000
 5.01873000	0.65898300	33.30650000
 5.29266000	0.83671100	39.02850000
 4.93582000	0.69013800	44.04140000
 5.32504000	1.04998000	49.58570000
 5.31667000	0.79786900	54.45090000
 4.67506000	1.04128000	60.48140000
 4.86408000	1.08483000	65.66280000
 4.75555000	0.94100900	70.98730000
 4.46120000	0.59956300	76.76250000
 4.32312000	0.61717500	81.71240000
 4.52599000	0.57806500	86.81320000
 4.74275000	0.08759090	92.26180000
 4.94539000	0.62169900	97.77610000
 5.06678000	1.00136000	103.00100000
 5.37150000	6.50358000	1.55515000
 5.36907000	5.96844000	6.88232000
 5.13681000	6.77166000	11.94690000
 5.37503000	6.77009000	17.31210000
 5.35521000	6.32989000	22.23210000
 5.41455000	6.56274000	28.35560000
 4.54964000	6.56861000	32.87480000
 4.82615000	6.81753000	39.11270000
 4.39676000	6.83100000	44.40970000
 4.93976000	6.82896000	49.43350000
 4.43912000	6.37802000	54.92050000
 4.83108000	6.54147000	60.18430000
 5.03428000	6.68919000	65.28980000
 4.75026000	6.52250000	70.84600000
 4.26376000	6.69763000	76.21640000
 4.95152000	6.70071000	81.22760000
 4.69101000	6.07360000	86.84140000
 4.98798000	6.09536000	91.87880000
 5.19896000	6.59016000	97.47250000
 4.80255000	6.91035000	103.17000000
 4.83750000	12.11970000	1.52681000
 5.41468000	12.31550000	6.91050000
 5.73591000	12.27320000	12.19220000
 5.21067000	12.89830000	17.69630000
 5.83402000	12.74530000	22.90040000
 5.41307000	12.71430000	28.25630000
 5.78757000	12.41490000	33.46640000
 5.07080000	12.36700000	38.76060000
 4.61114000	12.60720000	44.13920000
 4.88292000	12.50820000	49.82400000
 4.76604000	12.63220000	55.09730000
 4.55875000	13.08210000	60.56100000
 4.58507000	12.61330000	65.75860000
 4.36620000	12.60770000	70.98050000
 4.70014000	12.63970000	76.59080000
 4.16331000	12.42930000	81.85220000
 4.97232000	11.97880000	86.74730000
 4.68859000	11.88790000	92.63620000
 5.09812000	12.34000000	97.99750000
 5.37913000	12.94830000	103.52600000
 5.16522000	18.26860000	1.49925000
 5.36625000	18.16190000	6.79662000
 4.81698000	18.13630000	12.54920000
 5.51487000	18.03780000	17.14790000
 5.00431000	17.96340000	22.89130000
 5.55872000	18.01630000	28.43250000
 5.25542000	17.99700000	33.35770000
 4.94233000	18.13740000	39.10990000
 5.00982000	17.86000000	44.16650000
 5.31008000	18.49620000	49.28100000
 5.11705000	18.06850000	54.62320000
 4.77390000	18.38540000	60.60420000
 4.76024000	18.46370000	65.78660000
 4.44336000	18.31740000	70.86440000
 4.28501000	17.98910000	76.20150000
 4.24003000	17.67910000	81.43320000
 4.22585000	17.04900000	87.37160000
 4.52495000	18.05820000	92.83010000
 5.14788000	17.79320000	98.05430000
 4.95427000	18.38890000	103.20100000
 8.34248000	1.30681000	1.53982000
 8.83061000	0.93979600	7.16714000
 8.74615000	0.68651900	11.83890000
 8.69031000	0.76507300	17.35290000
 8.81944000	1.01957000	22.28330000
 9.02056000	1.19603000	27.94040000
 8.28997000	1.14027000	33.42700000
 8.09430000	0.84435100	38.58100000
 8.77970000	1.02611000	44.14300000
 7.95399000	1.41915000	49.53150000
 8.31685000	1.26364000	55.16450000
 8.04482000	0.72546100	60.68660000
 7.88446000	1.38754000	65.84240000
 7.93801000	1.20286000	71.22230000
 7.43378000	0.68221500	76.46780000
 7.57763000	1.18961000	81.49310000
 7.85617000	0.34462400	87.21130000
 8.07379000	0.74222900	92.41580000
 8.24187000	0.75290900	98.04360000
 8.38477000	1.11115000	103.34800000
 8.95168000	6.57768000	1.76340000
 8.34464000	6.77619000	6.77093000
 8.54615000	6.77636000	12.18960000
 8.27150000	7.09936000	17.75040000
 8.60107000	7.02431000	22.72690000
 8.71216000	6.95226000	28.34020000
 8.04911000	6.50188000	34.00270000
 7.97832000	6.43441000	38.76460000
 8.15940000	6.93809000	44.29520000
 8.04716000	7.07634000	49.60550000
 8.19721000	7.15496000	54.81280000
 8.29881000	6.50059000	60.21750000
 8.08590000	7.08001000	65.15380000
 7.56293000	6.77282000	71.16180000
 7.57003000	6.30955000	75.81210000
 8.22126000	5.89940000	81.41450000
 8.74131000	6.22012000	86.67080000
 9.11576000	6.75233000	92.24470000
 8.87850000	6.18785000	97.16710000
 8.05875000	6.44951000	103.31300000
 7.99022000	12.48710000	1.50707000
 8.58105000	12.49960000	6.69385000
 9.14081000	12.31990000	12.34600000
 8.74033000	12.57160000	17.28080000
 9.00621000	12.61510000	22.53950000
 8.63810000	12.54020000	28.12960000
 8.76815000	12.69290000	34.03110000
 8.37679000	12.41420000	38.59130000
 8.11912000	12.56580000	44.20020000
 8.01289000	12.46890000	49.51770000
 8.05265000	12.27540000	54.78580000
 8.05239000	12.87220000	60.24820000
 8.07867000	12.85000000	65.84420000
 7.91178000	12.38930000	70.72940000
 7.51788000	12.29480000	76.48810000
 8.16769000	12.29760000	81.55500000
 8.31832000	11.79790000	86.86480000
 8.05593000	12.61170000	92.24330000
 8.32985000	11.76530000	97.11990000
 8.49403000	12.16740000	103.19900000
 8.54742000	18.10710000	1.46623000
 8.16111000	18.04120000	7.08628000
 8.80385000	17.96310000	12.41370000
 9.07326000	17.86760000	17.70760000
 8.57402000	18.09620000	22.72070000
 8.44010000	18.29040000	28.18390000
 8.49995000	18.09330000	33.40120000
 8.06946000	18.22180000	38.86880000
 8.23370000	18.12860000	43.98350000
 8.46319000	18.81720000	49.23320000
 8.58624000	18.34760000	55.01180000
 8.13166000	18.50220000	60.51880000
 7.93410000	18.93520000	65.14030000
 7.65241000	17.98480000	71.14020000
 7.62978000	18.06040000	75.80500000
 7.36460000	17.52430000	81.74410000
 7.87447000	17.80200000	86.99770000
 7.76434000	17.75200000	92.73250000
 8.48936000	17.93390000	97.86270000
 8.73083000	18.35600000	103.28100000
 12.06430000	1.21270000	1.48860000
 11.62980000	1.26532000	7.00458000
 12.23030000	0.96341200	11.94440000
 12.01370000	1.18941000	17.51310000
 12.13440000	1.32457000	22.79670000
 12.06170000	1.01033000	27.90250000
 11.60100000	1.23861000	33.70050000
 11.74260000	1.15361000	38.69280000
 11.89520000	0.97412300	44.13900000
 12.15020000	1.32949000	49.49520000
 11.99690000	0.96384200	55.25870000
 11.41220000	1.01914000	60.48990000
 11.25350000	1.47806000	66.08330000
 11.41140000	0.70665800	71.43060000
 11.02950000	0.79302700	76.32450000
 11.23990000	0.43674400	81.69030000
 11.25320000	0.46250600	86.51670000
 11.68270000	1.26324000	92.55440000
 11.52040000	0.73218100	98.01820000
 12.16270000	0.91357700	103.54300000
 11.97220000	6.85083000	1.91317000
 12.15760000	7.06828000	6.58012000
 11.68030000	6.62616000	12.16980000
 11.75360000	6.78708000	17.81920000
 11.84240000	6.76113000	22.93220000
 11.70810000	6.87989000	28.24870000
 11.45760000	6.56530000	33.89570000
 11.57740000	6.69236000	38.98640000
 11.78250000	6.78668000	44.15710000
 11.27130000	6.56901000	49.45060000
 11.34180000	6.65323000	54.93220000
 11.49810000	6.74858000	60.36170000
 11.32070000	6.76053000	65.69510000
 10.73430000	7.00177000	70.60370000
 11.06820000	6.73359000	76.33520000
 11.21380000	6.17370000	81.46940000
 11.65890000	6.22589000	86.75470000
 12.19070000	6.12199000	92.29060000
 11.79510000	6.11323000	97.57920000
 11.46090000	6.62383000	103.50000000
 11.71940000	12.72540000	1.22556000
 11.99450000	12.50300000	6.63221000
 12.75090000	12.59860000	12.06830000
 11.85770000	12.31190000	17.23530000
 11.94050000	12.55270000	23.04420000
 11.53980000	12.53960000	28.34390000
 11.97950000	11.95500000	33.96830000
 11.60440000	12.69440000	38.91850000
 11.28830000	12.58540000	44.21420000
 10.90260000	13.25040000	49.61430000
 11.78900000	12.88270000	55.04850000
 11.64150000	12.90350000	60.39830000
 11.33960000	13.10790000	65.39710000
 11.25480000	12.37790000	70.99500000
 11.12990000	11.72950000	76.31370000
 11.39680000	11.95080000	81.75920000
 11.30030000	12.09800000	87.17880000
 11.12710000	12.42820000	91.53540000
 11.89010000	11.83980000	98.01960000
 11.25670000	12.27200000	102.60200000
 11.94630000	18.07680000	1.67252000
 11.57340000	18.16100000	6.78469000
 11.77310000	18.18310000	12.13750000
 12.15220000	18.31220000	17.32940000
 11.80530000	18.11240000	22.68700000
 11.48360000	18.45600000	27.99670000
 11.94860000	17.76810000	33.48620000
 11.67390000	18.11730000	38.55900000
 11.58810000	18.03950000	43.95370000
 11.99340000	18.47490000	49.50840000
 11.56120000	18.47690000	55.12570000
 11.84750000	18.62260000	60.29060000
 11.15860000	19.04250000	65.66000000
 10.99980000	18.53610000	71.45590000
 10.42590000	17.96560000	76.42660000
 10.56930000	17.85840000	81.42360000
 11.63710000	17.38090000	87.29440000
 11.05750000	17.58720000	92.63160000
 11.63750000	17.86880000	98.27390000
 11.96280000	18.43760000	103.48500000
 0.29599000	3.96815000	1.49144000
 0.51560000	3.76196000	7.07880000
 0.61447800	3.80934000	12.03000000
 0.51965100	4.08222000	17.36890000
 0.48555600	3.93976000	22.78350000
 0.38183100	3.85721000	28.08240000
 0.25054100	4.33308000	33.64490000
 13.08270000	4.19242000	38.65760000
 0.05250000	4.21406000	43.97020000
 0.14068700	4.01608000	49.67180000
 13.15910000	3.48019000	54.93540000
 0.37377400	4.42662000	60.28790000
 0.00610000	3.85318000	65.53380000
 12.48110000	3.34400000	71.07540000
 12.28320000	3.37007000	76.22890000
 0.03490000	3.24347000	81.46190000
 12.63800000	3.38841000	87.00400000
 0.26632500	3.80483000	92.59220000
 12.77270000	3.46286000	97.91500000
 13.13920000	3.77100000	103.34900000
 0.15484400	9.99447000	2.28924000
 0.61970000	9.67454000	7.05541000
 0.53731900	9.53889000	12.20000000
 0.44948700	9.24697000	17.64270000
 0.07331300	9.82219000	23.24370000
 0.45238600	9.90464000	28.22840000
 13.04230000	9.11222000	33.54660000
 0.10830000	9.30482000	38.89140000
 12.94350000	9.91101000	44.18570000
 12.95390000	9.42140000	49.74360000
 12.85200000	9.73322000	55.01390000
 13.20120000	9.59746000	60.14370000
 12.62410000	10.03210000	65.43290000
 12.52720000	9.58323000	71.23640000
 12.53230000	9.31749000	76.40480000
 12.73470000	9.35402000	81.32970000
 0.34473500	9.54863000	86.79170000
 0.05530000	9.09627000	92.58970000
 0.92204800	8.60470000	98.07770000
 13.22104700	9.48943000	103.74500000
 0.50586900	15.20810000	1.48668000
 0.22918000	15.02490000	6.59488000
 0.24733000	15.32280000	12.14250000
 0.32764600	15.05920000	17.40310000
 0.57272200	15.11900000	22.98190000
 12.91280000	15.14260000	28.24620000
 0.45893400	14.88110000	33.79920000
 0.14492200	15.24920000	38.67900000
 0.47798800	15.83070000	43.98350000
 0.47099700	15.20580000	49.46300000
 13.23110000	15.67080000	54.91370000
 12.68900000	15.55350000	60.54570000
 12.88290000	16.06330000	65.19580000
 13.21192140	14.95620000	71.35640000
 12.76620000	14.59370000	76.24160000
 12.21210000	15.05620000	81.91360000
 0.20842000	14.95840000	86.58190000
 13.10540000	15.23830000	92.67880000
 12.96240000	14.85230000	97.73120000
 12.77200000	15.42500000	103.48300000
 13.21160000	20.85880000	1.43823000
 0.58798600	20.59970000	6.88135000
 0.36177600	20.95070000	12.11470000
 0.51876600	20.72650000	17.45260000
 0.48490600	20.92130000	22.90980000
 0.04346220	20.84170000	27.86150000
 13.13540000	20.73010000	33.57120000
 0.01010000	21.18630000	38.76540000
 0.01297280	21.44770000	44.52900000
 13.11385700	21.16030000	49.44490000
 0.59066200	21.08420000	54.87300000
 0.21058700	21.14330000	60.35270000
 13.09580000	21.61540000	65.67690000
 12.66100000	20.94960000	70.99450000
 12.63400000	20.71860000	76.40540000
 12.40180000	20.41990000	81.38930000
 12.84090000	20.60970000	87.24280000
 13.14950000	20.75000000	92.37950000
 12.94760000	20.65220000	98.14470000
 0.23103500	20.98260000	103.48400000
 3.79458000	3.92313000	1.68237000
 3.71746000	3.54311000	6.81705000
 3.95638000	3.85663000	12.06850000
 4.14275000	4.14152000	17.44090000
 4.05707000	3.53511000	22.62910000
 3.55095000	3.83942000	28.16320000
 3.51072000	3.74639000	33.96490000
 3.35717000	3.39530000	38.88210000
 3.03169000	3.58345000	44.30750000
 3.12639000	4.26915000	49.79700000
 3.24542000	3.73546000	54.84200000
 3.24585000	3.53676000	60.43230000
 3.27935000	3.64357000	65.50810000
 2.76344000	3.93655000	70.86750000
 2.15915000	3.70939000	76.14100000
 3.06857000	3.87202000	81.75800000
 3.18757000	3.50673000	86.82830000
 3.29534000	4.18229000	92.38420000
 3.59499000	3.55595000	97.84810000
 3.37077000	3.77335000	103.42100000
 3.25712000	9.12638000	1.48727000
 3.89915000	9.48835000	7.04275000
 3.72822000	9.57449000	11.92580000
 3.75765000	9.55752000	17.37050000
 3.82161000	9.73984000	22.81160000
 4.04619000	9.74406000	28.06030000
 3.17230000	9.77455000	33.36580000
 3.24142000	9.57346000	39.02120000
 2.84395000	9.52466000	44.48550000
 2.93232000	9.62299000	49.83720000
 3.20207000	9.93084000	54.76170000
 3.00467000	9.82928000	60.20070000
 3.28133000	9.75988000	65.22860000
 3.01642000	9.51908000	70.33790000
 3.06487000	9.59787000	76.32510000
 2.69516000	9.15775000	81.76370000
 3.52829000	9.20124000	86.68240000
 3.47053000	8.97900000	92.14860000
 3.95911000	9.56532000	97.40790000
 3.69017000	10.59300000	103.46300000
 3.67360000	15.56330000	1.64439000
 3.85365000	15.13810000	6.70803000
 3.53666000	15.41110000	11.94060000
 3.61460000	15.59070000	17.41390000
 3.89428000	15.02090000	22.44770000
 3.34085000	15.82790000	28.42050000
 3.67083000	15.42010000	33.87020000
 3.49573000	15.40690000	38.85210000
 3.59077000	15.43580000	44.26930000
 3.49732000	15.54510000	49.57050000
 3.28934000	15.39350000	54.91180000
 2.65766000	15.55130000	60.41590000
 2.94368000	15.83230000	65.54960000
 2.84545000	15.49970000	70.73960000
 2.70100000	15.42790000	76.13560000
 2.83018000	15.03280000	81.71690000
 3.17669000	14.47760000	87.88640000
 2.95321000	14.89290000	92.90030000
 3.31348000	15.10430000	97.83410000
 3.15298000	15.07210000	103.32300000
 3.45535000	21.21670000	1.47565000
 3.67372000	21.28490000	6.83350000
 3.92980000	21.09480000	11.81210000
 3.46939000	20.87630000	17.55220000
 3.46241000	20.77070000	23.00410000
 3.40150000	20.83580000	27.73580000
 3.69699000	20.98240000	33.59780000
 2.96686000	21.28200000	38.68610000
 3.42270000	21.07960000	43.97380000
 3.47862000	21.13580000	49.31650000
 3.79658000	21.02060000	54.83280000
 3.30198000	21.26660000	60.31510000
 3.16101000	21.00030000	65.72320000
 3.10885000	20.98430000	70.83620000
 2.01261000	20.57690000	75.99550000
 2.65636000	20.54560000	81.43310000
 2.82013000	20.53480000	86.86670000
 2.85334000	20.65260000	92.85670000
 3.46815000	20.67550000	98.01640000
 3.49068000	20.66530000	103.21500000
 6.65186000	4.03294000	1.46474000
 7.09406000	3.69172000	6.56463000
 7.29316000	3.60841000	11.99920000
 7.36546000	4.04559000	17.59270000
 7.25728000	3.50715000	22.86540000
 6.76986000	4.01399000	28.25320000
 6.53585000	3.68979000	33.40290000
 6.61899000	3.64965000	38.94250000
 6.26110000	3.78989000	44.44310000
 6.52471000	4.49141000	49.83930000
 6.26157000	3.63926000	54.94030000
 6.70008000	3.86459000	60.52410000
 6.57527000	4.05296000	65.68330000
 6.04596000	3.78650000	71.01290000
 5.75434000	3.62272000	76.11350000
 6.03495000	3.70371000	81.63850000
 6.48463000	3.25397000	86.71870000
 6.31009000	3.12105000	92.42400000
 6.45161000	3.38543000	97.78480000
 6.55329000	3.67886000	103.54500000
 7.01160000	9.18985000	1.62250000
 7.02615000	9.93871000	7.01935000
 7.11295000	9.41356000	12.08600000
 6.94704000	10.03790000	17.47450000
 6.69596000	9.62135000	22.63360000
 7.09758000	9.48470000	28.43840000
 6.59552000	9.31367000	33.46900000
 6.21983000	9.68388000	38.94660000
 6.07251000	9.93670000	44.07420000
 6.38008000	9.62424000	49.79050000
 6.54446000	9.87055000	54.49520000
 6.43743000	10.20660000	60.03380000
 6.40848000	9.88808000	65.44420000
 6.21715000	9.78708000	70.89360000
 5.97340000	9.62483000	75.99530000
 5.95617000	9.61456000	81.52350000
 6.59646000	8.84287000	86.98720000
 6.83995000	9.70286000	91.83490000
 7.28881000	9.05935000	97.83310000
 6.80874000	9.57815000	103.30500000
 6.90259000	15.37410000	1.52506000
 7.22465000	15.19820000	6.38320000
 7.08687000	15.56320000	12.16800000
 7.21226000	15.37250000	17.51320000
 7.00026000	15.28910000	22.92550000
 6.88665000	15.36090000	27.93150000
 7.10178000	15.39340000	33.69260000
 6.53893000	14.98930000	39.21570000
 6.86980000	15.30650000	44.27320000
 6.84060000	15.26110000	49.59430000
 6.83600000	15.57370000	54.60730000
 6.18108000	15.71590000	60.39330000
 6.52439000	15.65430000	65.44290000
 6.13718000	15.31820000	70.66460000
 5.84120000	15.46930000	75.91280000
 5.89058000	14.39600000	81.90330000
 6.25840000	14.77150000	87.35350000
 6.30064000	14.97720000	92.59300000
 6.90652000	15.09170000	97.97000000
 7.01739000	15.22860000	103.06200000
 7.00930000	21.11450000	1.58087000
 6.78791000	20.83600000	6.74951000
 7.20380000	20.77910000	12.27780000
 6.76967000	20.66370000	17.94970000
 7.36573000	21.03880000	22.65850000
 7.12725000	20.88240000	28.02890000
 6.70886000	20.91560000	33.45760000
 6.64592000	20.76970000	38.92100000
 6.66499000	21.06650000	44.13760000
 6.72627000	21.43320000	49.01340000
 6.83612000	20.93590000	54.74370000
 6.66825000	20.91470000	60.50950000
 6.32327000	21.34630000	65.61820000
 6.58413000	21.14590000	71.20650000
 5.70630000	20.78650000	76.21750000
 6.03372000	20.50360000	81.96560000
 6.26000000	20.55410000	86.91690000
 6.24094000	20.40230000	92.58220000
 6.43040000	21.01740000	97.77030000
 6.77503000	20.91610000	103.47600000
 9.97369000	3.77420000	1.40103000
 10.51100000	4.09942000	6.78089000
 10.56100000	3.57652000	12.18720000
 10.46960000	3.56836000	17.52460000
 10.69780000	4.09628000	22.65920000
 10.32630000	4.39460000	28.90000000
 10.08200000	4.26930000	33.50470000
 9.69889000	3.70372000	38.59950000
 10.33970000	3.79389000	44.77710000
 9.84459000	3.92166000	49.67410000
 9.96684000	3.50634000	54.91210000
 9.91502000	3.65844000	60.30410000
 9.50457000	4.04375000	65.29900000
 9.57955000	3.91642000	71.15660000
 9.04153000	3.92010000	76.31110000
 9.98235000	3.29030000	81.22550000
 9.61695000	3.07878000	86.91620000
 10.20310000	3.87392000	92.31130000
 9.93119000	3.67327000	97.85550000
 9.35714000	4.11147000	103.34400000
 10.15160000	9.47346000	1.27765000
 10.14090000	9.27074000	7.00267000
 10.35340000	9.42543000	12.55030000
 10.27380000	9.72218000	17.44020000
 10.37630000	9.98863000	23.01810000
 10.41910000	9.97989000	28.64820000
 9.78303000	9.73181000	33.75410000
 9.54772000	9.69412000	39.29420000
 9.79501000	9.82749000	43.98140000
 9.68207000	9.70609000	49.52680000
 9.61009000	9.69526000	55.32910000
 9.69278000	9.62569000	60.06080000
 9.72620000	9.73727000	65.42550000
 9.49816000	9.81488000	70.91130000
 9.48303000	9.37245000	76.11710000
 8.83057000	9.05123000	81.32430000
 9.77570000	9.41579000	86.92650000
 10.29510000	9.40246000	91.73580000
 10.43910000	8.98248000	97.44670000
 10.15080000	9.16702000	102.99200000
 10.05860000	15.32140000	1.41783000
 10.28590000	14.91370000	6.64574000
 10.13010000	15.31920000	12.51140000
 10.28310000	15.50360000	17.34630000
 10.46240000	15.57900000	22.50280000
 10.07650000	14.94130000	27.84490000
 10.54810000	14.96860000	33.53800000
 9.37549000	15.54380000	38.72260000
 10.16360000	15.55130000	44.36790000
 9.94917000	16.00800000	49.11360000
 10.01600000	15.58770000	54.94460000
 9.86147000	15.48020000	60.16200000
 9.95024000	16.03370000	65.73680000
 10.11180000	15.53980000	71.25550000
 8.96713000	14.98510000	76.13470000
 9.11426000	15.06770000	81.78270000
 9.40889000	14.97420000	87.18890000
 9.74361000	15.47980000	92.64840000
 9.55505000	14.33110000	97.19550000
 9.90431000	15.59610000	103.07400000
 10.10770000	21.55370000	1.65627000
 10.17250000	21.06040000	7.14461000
 10.62950000	21.03080000	11.96490000
 10.85850000	20.91310000	17.67160000
 10.52110000	21.08290000	22.60750000
 10.32230000	21.22020000	28.13770000
 9.96425000	20.76290000	33.10760000
 9.86848000	21.43970000	38.66150000
 10.39070000	21.14380000	43.78190000
 9.71538000	22.01740000	49.72790000
 10.15960000	21.35110000	55.16930000
 10.11070000	21.28050000	60.50000000
 9.53461000	21.58550000	65.73280000
 9.61237000	21.13150000	70.97630000
 8.91942000	20.69940000	76.23530000
 8.85445000	20.94070000	81.80430000
 9.57011000	20.54730000	87.31950000
 10.12150000	21.26290000	91.96730000
 9.63726000	21.05490000	97.75700000
 10.48230000	21.47790000	103.86200000
 1.85073000	4.53341000	4.11568000
 2.14322000	4.84370000	9.28002000
 2.21891000	4.98378000	14.43600000
 2.50275000	5.05554000	20.00720000
 1.87055000	4.60241000	25.47110000
 2.22844000	4.72736000	30.91100000
 1.65998000	4.52876000	36.62780000
 1.55833000	5.15749000	41.43670000
 1.24191000	5.00247000	46.70270000
 1.76943000	4.95740000	52.47330000
 1.66304000	4.52200000	57.50530000
 1.49031000	5.20010000	63.33220000
 1.69453000	4.75714000	67.95700000
 0.98445800	4.69792000	73.41610000
 0.86458300	4.84396000	78.75870000
 1.38403000	4.30509000	84.34700000
 1.70329000	4.13022000	89.50630000
 2.10275000	4.33942000	95.31120000
 2.09875000	4.57833000	100.89600000
 1.95999000	4.97190000	106.11900000
 2.33669000	10.13260000	4.42011000
 2.46256000	10.02580000	9.36794000
 2.03928000	9.79182000	15.09290000
 2.08972000	10.74460000	20.26900000
 2.21987000	10.12350000	25.48590000
 1.76520000	10.39980000	30.71370000
 1.32986000	10.14660000	36.21480000
 1.47289000	10.78850000	41.66100000
 1.49955000	10.85250000	46.96640000
 1.41076000	10.73830000	52.37250000
 1.61089000	10.65640000	57.70100000
 1.18156000	10.29780000	62.91470000
 1.56897000	10.97690000	67.74600000
 1.25130000	10.01630000	73.59210000
 0.57828900	10.40440000	78.81610000
 0.98845900	10.82530000	84.03140000
 1.55240000	9.85046000	89.61930000
 2.20174000	10.68250000	94.61920000
 2.05117000	10.14790000	100.59100000
 2.02701000	10.69690000	106.40800000
 1.90988000	15.69830000	4.48393000
 1.70902000	15.35350000	9.44457000
 1.97630000	16.17360000	14.80190000
 2.26458000	16.47630000	20.23140000
 2.12156000	15.81880000	25.75380000
 1.76757000	15.46890000	31.33160000
 1.62967000	16.05240000	36.34400000
 2.08028000	16.61860000	41.54150000
 1.76428000	16.49350000	46.45000000
 2.20059000	16.73200000	52.19820000
 1.02371000	16.42300000	57.66940000
 1.14994000	17.26040000	62.47550000
 1.71567000	16.68380000	67.89640000
 1.22459000	15.73780000	73.74250000
 1.31827000	15.77110000	79.00330000
 0.66901400	15.92710000	83.89780000
 1.46531000	15.95610000	90.01290000
 0.99957000	15.92110000	95.28080000
 1.65650000	16.06390000	100.87100000
 1.68320000	15.87020000	105.78800000
 1.63699000	21.71610000	4.26456000
 1.72200000	21.73700000	9.63196000
 1.10324000	22.42260000	14.81130000
 1.85286000	22.37550000	19.74860000
 1.99583000	22.42850000	25.38630000
 1.71645000	21.87790000	30.49910000
 1.66840000	22.13880000	35.68590000
 1.34374000	21.93840000	41.61370000
 1.96818000	22.00090000	47.08160000
 1.99179000	22.21920000	52.53580000
 1.69744000	22.31130000	57.15390000
 1.50938000	21.92110000	63.25870000
 1.20560000	22.26780000	68.77630000
 1.31196000	21.86660000	73.40090000
 0.89301100	21.90420000	78.95670000
 1.13244000	21.33820000	84.21100000
 1.37460000	21.34530000	89.62860000
 1.47778000	21.87790000	95.05740000
 1.74940000	21.93460000	100.61400000
 1.93655000	21.44010000	106.01200000
 5.46569000	4.70797000	4.17104000
 5.53946000	4.63680000	9.56946000
 5.38098000	4.85703000	14.65160000
 5.71532000	4.71804000	19.91010000
 5.08726000	4.33691000	25.35610000
 5.40447000	4.60742000	30.71930000
 4.50331000	4.87139000	36.51690000
 4.60868000	4.76061000	41.47330000
 4.41745000	4.61870000	47.38550000
 4.67386000	5.16297000	52.25080000
 5.23085000	5.00162000	57.41200000
 4.84461000	4.78030000	62.94380000
 4.77656000	4.54373000	68.34750000
 4.25755000	4.77723000	73.62890000
 4.34013000	5.09374000	79.05590000
 5.24936000	4.71393000	84.28250000
 4.86710000	4.71903000	89.18020000
 4.99697000	4.71805000	94.83280000
 5.00026000	4.71635000	100.60800000
 5.05253000	4.94049000	105.89900000
 5.27044000	10.28380000	4.18171000
 5.49458000	10.65470000	9.58648000
 5.60389000	10.90900000	15.02650000
 5.27228000	10.90760000	20.02950000
 5.66356000	10.19680000	25.31870000
 4.87646000	10.26170000	30.86560000
 4.65864000	10.27760000	35.94270000
 4.78740000	10.54130000	41.37980000
 4.55078000	10.51840000	47.11850000
 4.70004000	10.51070000	52.24540000
 4.85566000	10.44250000	57.52420000
 5.09478000	11.15070000	63.04980000
 4.48266000	10.54700000	68.04870000
 4.10903000	10.34790000	73.11100000
 4.51747000	10.35090000	79.23970000
 4.93477000	10.72470000	84.06960000
 5.07486000	10.26150000	89.29230000
 5.69231000	10.82030000	95.33110000
 5.56303000	10.44230000	100.36500000
 5.29148000	10.57370000	105.85700000
 5.12241000	16.26700000	4.09996000
 5.04992000	16.20080000	9.13827000
 5.39025000	16.08800000	14.69930000
 5.60791000	15.85870000	20.17570000
 5.08652000	15.97220000	25.33280000
 5.36607000	15.87690000	30.90720000
 5.28747000	16.59180000	36.11070000
 5.76934000	16.06680000	41.62290000
 5.00001000	16.33010000	47.06140000
 5.39605000	16.76350000	51.90450000
 4.71422000	16.36120000	57.93590000
 4.47722000	16.45110000	63.05330000
 4.70409000	16.50540000	68.19880000
 4.36352000	16.31280000	73.23730000
 4.21388000	16.25030000	78.50020000
 4.47639000	15.90230000	84.42680000
 4.81106000	16.04820000	90.28990000
 5.39543000	15.81900000	95.38470000
 4.84734000	15.81940000	100.42300000
 5.26190000	16.20940000	105.34800000
 5.01392000	21.97930000	3.89245000
 5.41991000	22.00860000	9.32777000
 4.86681000	21.96400000	15.00620000
 5.26147000	21.74780000	20.41460000
 5.41095000	21.35300000	25.15690000
 4.99767000	21.87930000	30.52710000
 4.92000000	21.69750000	36.24450000
 4.66989000	22.14630000	41.42130000
 4.99099000	22.09920000	46.76100000
 5.19238000	21.89920000	52.10060000
 4.71319000	21.71090000	57.70510000
 4.82206000	22.02410000	62.96870000
 4.45404000	22.26120000	68.32570000
 4.26081000	21.79550000	73.76500000
 4.05963000	21.82910000	79.14060000
 4.20977000	21.50840000	84.52240000
 4.22739000	21.32480000	89.41820000
 4.90676000	21.61720000	95.22090000
 4.92600000	21.70230000	100.59400000
 4.98538000	22.07200000	106.23800000
 8.82773000	4.84048000	3.98325000
 8.77223000	5.06077000	9.86103000
 8.50497000	4.52736000	14.80350000
 9.10393000	5.10408000	19.99900000
 8.79414000	4.85897000	25.39380000
 8.45763000	4.58619000	31.32680000
 7.77627000	4.61044000	36.07200000
 7.95652000	4.98413000	41.75250000
 8.05338000	4.72877000	46.59240000
 8.34981000	4.91686000	52.61960000
 8.00571000	4.76485000	57.37500000
 7.92114000	4.85540000	62.84660000
 8.02896000	5.08496000	68.63200000
 7.37057000	4.64389000	73.22150000
 7.51622000	4.71668000	78.87120000
 8.70170000	4.53043000	84.19690000
 8.40212000	4.53523000	89.53120000
 8.04095000	4.34972000	94.63510000
 8.18653000	4.48763000	100.36300000
 8.20600000	4.62760000	106.08900000
 8.46841000	10.11740000	4.06558000
 8.84613000	10.40350000	9.65802000
 8.38006000	10.46460000	14.92530000
 8.41944000	10.81030000	20.26680000
 8.82573000	10.47670000	25.86260000
 8.41904000	10.46120000	31.11890000
 7.84372000	10.32860000	36.23720000
 7.96240000	10.38950000	41.66160000
 7.74898000	10.33410000	46.93970000
 8.20693000	10.49150000	52.19390000
 8.54785000	11.13120000	57.73740000
 8.00845000	11.10760000	63.04760000
 8.05910000	10.50990000	68.11090000
 7.96941000	10.78550000	73.60020000
 7.55916000	10.37460000	78.94290000
 8.48650000	10.64800000	83.96180000