H  He
 1.0000000000000000
    28.8726815432281363    0.0000000000000000    0.0000000000000000
     0.0000000000000000   28.8726815432281363    0.0000000000000000
     0.0000000000000000    0.0000000000000000   86.6180456630427074
 H   He 
 1533 1537
Cartesian
 26.2529000000000003 25.6237999999999992 78.1539999999999964
 25.0917999999999992 25.0050999999999988 84.4188999999999936
 26.1829999999999998 26.3661999999999992 21.0386999999999986
 25.9785000000000004 26.4067000000000007 26.5039000000000016
 26.0323999999999991 25.9676000000000009 32.6092000000000013
 25.7174000000000014 25.5805000000000007 37.6981999999999999
 25.8399999999999999 25.7523000000000017 68.1808000000000050
 26.5545000000000009 26.2241999999999997 73.4008999999999929
 26.2702999999999989  2.3169900000000001 78.3222999999999985
 27.3567999999999998  4.2781200000000004 83.1525000000000034
 25.3857999999999997  3.1146500000000001 21.8232999999999997
 25.9038000000000004  2.9226999999999999 26.8542999999999985
 26.0050999999999988  2.7249599999999998 32.6803999999999988
 26.2094999999999985  2.3329100000000000 37.8003000000000000
 27.3356999999999992  3.6323599999999998 68.7460999999999984
 26.2463000000000015  2.4522100000000000 73.3918000000000035
 25.6213000000000015  9.3015500000000007 78.8763000000000005
 26.1795000000000009  9.2504600000000003 83.8961000000000041
 26.0917999999999992  8.5135799999999993 21.1428000000000011
 26.2219000000000015  9.2046200000000002 26.3628000000000000
 26.1582000000000008  8.9766800000000000 33.0178999999999974
 26.0423000000000009  8.9045299999999994 38.1683000000000021
 26.2772000000000006  7.8095100000000004 68.0759000000000043
 26.4159000000000006  9.0456299999999992 72.8509999999999991
 26.2085000000000008 14.6734000000000009 78.5234999999999985
 25.0564999999999998 15.6524999999999999 -1.0953700000000000
 26.1785999999999994 15.3300000000000001 20.9018000000000015
 25.6961000000000013 14.2683999999999997 26.9765000000000015
 26.5720999999999989 14.3780000000000001 32.9669000000000025
 26.1933000000000007 13.9578000000000007 37.7537000000000020
 25.3291000000000004 15.6166000000000000 67.9231000000000051
 26.4719000000000015 14.8950999999999993 72.5275000000000034
 25.7927999999999997 20.6113999999999997 78.9758000000000067
 25.7015999999999991 19.9497000000000000 83.6949000000000041
 25.0534999999999997 20.2845000000000013 21.6702000000000012
 25.7833000000000006 19.9007000000000005 26.7915999999999990
 26.1188000000000002 20.7481000000000009 32.0230000000000032
 27.1779000000000011 20.0106999999999999 38.1901999999999973
 26.3801999999999985 22.0393000000000008 67.7227000000000032
 26.1873000000000005 20.5065999999999988 73.4736000000000047
  2.8639199999999998 25.3768999999999991 78.2231000000000023
  0.8200160000000000 23.9615000000000009 82.9479000000000042
  2.0798500000000000 25.2759000000000000 21.7789000000000001
  3.3339799999999999 26.2037000000000013 27.3059000000000012
  3.1059399999999999 26.5305000000000000 32.3669999999999973
  3.5844900000000002 27.3700000000000010 38.1927000000000021
  4.1408500000000004 26.5866000000000007 67.1213999999999942
  3.1967200000000000 25.9289999999999985 72.8666999999999945
  2.7891499999999998  2.5011100000000002 78.4792999999999950
  2.8929399999999998  3.6636799999999998 84.0721999999999952
  3.5233400000000001  2.5443199999999999 19.8598999999999997
  3.1195499999999998  2.5339100000000001 26.2585000000000015
  3.3909400000000001  2.6700800000000000 33.1296000000000035
  2.3283399999999999  3.2482199999999999 39.2882999999999996
  2.8992700000000000  3.3996900000000001 67.4488999999999947
  3.6718700000000002  2.9528900000000000 73.4925000000000068
  3.0918800000000002  8.8964400000000001 78.0653999999999968
  1.2423900000000001  9.7580700000000000 82.3327000000000027
  2.5206700000000000  8.8439300000000003 21.5928000000000004
  3.2117800000000001  8.3903599999999994 27.2927000000000000
  2.5842299999999998  8.6538000000000004 32.5801000000000016
  2.6770800000000001  7.7769000000000004 37.9078000000000017
  3.1884299999999999  8.9344199999999994 67.6921999999999997
  2.8855100000000000  9.1774100000000001 72.5952999999999946
  2.6570000000000000 15.4831000000000003 78.4454000000000065
  2.9551099999999999 14.4504999999999999 84.4599000000000046
  3.3968699999999998 13.7786000000000008 22.1584000000000003
  3.1304500000000002 14.9804999999999993 27.1260000000000012
  3.3967800000000001 14.4324999999999992 32.2028999999999996
  3.4383900000000001 14.9902999999999995 36.7432000000000016
  3.5843600000000002 14.8327000000000009 67.0931000000000068
  2.7606099999999998 14.7055000000000007 73.3384999999999962
  3.4815299999999998 20.3319000000000010 78.8719999999999999
  2.3905300000000000 19.8580000000000005 -0.9394120000000000
  4.5540900000000004 20.3109999999999999 21.0662999999999982
  2.7551600000000001 20.1681999999999988 26.8668000000000013
  3.0729099999999998 20.2569000000000017 31.9030999999999985
  3.3809700000000000 20.6918000000000006 37.9842999999999975
  3.6531199999999999 19.9353000000000016 67.1624000000000052
  3.4247100000000001 19.9736000000000011 72.7575999999999965
  8.5814299999999992 26.4422999999999995 78.4419000000000040
  8.8698300000000003 25.0447999999999986 84.7425000000000068
  9.1689100000000003 25.9543999999999997 26.9741000000000000
  8.7914700000000003 26.4151999999999987 32.2537000000000020
  9.0419800000000006 25.9359999999999999 37.7317999999999998
  8.6215799999999998 26.0745000000000005 67.7606999999999999
  9.0092700000000008 26.6573999999999991 72.9500000000000028
  8.9391300000000005  2.9339300000000001 78.0485000000000042
  9.0986200000000004  3.1425000000000001 84.3849000000000018
  8.7730800000000002  3.0518399999999999 21.1676000000000002
  8.5147899999999996  3.0794100000000002 26.3967999999999989
  9.3170300000000008  3.0121899999999999 32.4425999999999988
  8.1534999999999993  2.0085299999999999 37.0536999999999992
  9.1425599999999996  2.8381099999999999 67.1243999999999943
  9.0386000000000006  3.4378400000000000 72.7574000000000041
  8.8625299999999996  8.5287199999999999 78.1718000000000046
  8.6068700000000007  8.1120199999999993 84.2378999999999962
  7.8202800000000003  9.1866699999999994 21.2728999999999999
  8.7113600000000009  8.5715800000000009 27.2070000000000007
  8.5683799999999994  9.2248699999999992 31.9547999999999988
  8.8188099999999991  8.7567599999999999 37.0521999999999991
  9.3264999999999993  9.2903400000000005 67.8255000000000052
  8.8599499999999995  9.1309000000000005 72.6632000000000033
  8.1833299999999998 14.7646999999999995 78.3729000000000013
  7.5077400000000001 14.1907999999999994 83.2432000000000016
  7.4998800000000001 13.6447000000000003 22.2409999999999997
  9.5270700000000001 14.9700000000000006 26.9374000000000002
  8.8695799999999991 14.7474000000000007 32.1706999999999965
  8.9470200000000002 15.3882999999999992 36.8066999999999993
  8.7701100000000007 14.9114000000000004 67.3165000000000049
  9.0646100000000001 14.7726000000000006 72.7031000000000063
  8.3252900000000007 20.5305999999999997 78.0441000000000003
  8.6325599999999998 20.7056000000000004 83.8572999999999951
  8.3524999999999991 20.3536999999999999 21.0873999999999988
  9.4276599999999995 20.5255000000000010 26.1912999999999982
  8.6831399999999999 20.5944000000000003 32.3265999999999991
  9.3492599999999992 20.2756000000000007 37.5290000000000035
  9.5307600000000008 20.7354999999999983 67.6299000000000063
  9.4682999999999993 20.0377000000000010 73.1457999999999942
 14.5286000000000008 26.4013999999999989 78.7964999999999947
 14.9109999999999996 26.5737999999999985 84.5244000000000000
 13.0891000000000002 26.0533000000000001 21.4162999999999997
 14.4556000000000004 25.9140000000000015 27.0071000000000012
 14.8851999999999993 26.1619999999999990 32.3566999999999965
 13.7670999999999992 25.6060000000000016 36.8258999999999972
 14.9338999999999995 26.2515999999999998 67.7785999999999973
 15.0917999999999992 26.4090999999999987 73.1577999999999946
 14.6023999999999994  2.9490400000000001 78.4906000000000006
 15.1456999999999997  3.9384100000000002 84.4031999999999982
 13.1598000000000006  2.7543799999999998 21.4055999999999997
 15.0351999999999997  3.0838700000000001 27.0549999999999997
 15.0358999999999998  3.4545900000000000 32.3111999999999995
 14.6331000000000007  4.0239500000000001 38.0508000000000024
 14.8919999999999995  3.5747499999999999 67.4624000000000024
 14.8834000000000000  3.0333100000000002 72.6321999999999974
 14.7086000000000006  8.9919200000000004 78.5798000000000059
 14.0206999999999997  8.9494900000000008 84.4368999999999943
 15.6410000000000000 10.4680000000000000 22.2537999999999982
 14.4222999999999999  8.3226800000000001 27.6978000000000009
 14.6873000000000005  8.6203199999999995 32.5093000000000032
 14.1968999999999994  9.3881700000000006 37.2856000000000023
 14.7082999999999995  9.2034599999999998 67.7519999999999953
 15.1326999999999998  8.3886500000000002 72.6486000000000018
 14.6797000000000004 14.9937000000000005 78.4960999999999984
 15.3751999999999995 13.8445999999999998 -1.2893200000000000
 15.0846000000000000 14.3331999999999997 20.7378999999999998
 14.5101999999999993 15.1079000000000008 26.7405000000000008
 14.7415000000000003 14.7471999999999994 32.9393000000000029
 14.5002999999999993 14.1500000000000004 38.4264000000000010
 14.9290000000000003 13.6854999999999993 67.0892000000000053
 14.9923999999999999 14.1866000000000003 73.0271999999999935
 14.7550000000000008 20.3262000000000000 78.3220000000000027
 15.5397999999999996 20.7914999999999992 83.6795000000000044
 14.3736999999999995 20.3443000000000005 26.6019000000000005
 14.6776000000000000 20.4818999999999996 32.2770999999999972
 13.8325999999999993 19.6986999999999988 36.8798999999999992
 14.5330999999999992 20.4259999999999984 67.4783000000000044
 14.5747000000000000 20.0396000000000001 72.3161999999999949
 20.2577999999999996 26.0102000000000011 78.1437999999999988
 20.4551000000000016 25.7985000000000007 84.8012999999999977
 20.3475000000000001 25.3819000000000017 21.9713999999999992
 20.7857999999999983 25.9703000000000017 27.0143999999999984
 20.4100000000000001 25.9783000000000008 31.7912999999999997
 21.0405000000000015 25.8275000000000006 37.6255999999999986
 21.1579000000000015 25.7547999999999995 67.4590000000000032
 20.5979999999999990 26.3409000000000013 72.5473000000000070
 20.6674000000000007  2.3456899999999998 78.8658999999999963
 20.3794000000000004  3.4854799999999999 84.0374000000000052
 20.2134999999999998  2.5507900000000001 21.6766000000000005
 20.4285999999999994  3.1538599999999999 26.8501000000000012
 20.3319000000000010  2.9335000000000000 32.5123999999999995
 20.1934000000000005  2.5800999999999998 37.6976000000000013
 19.2033999999999985  2.9662600000000001 66.9821000000000026
 21.0691999999999986  3.0374500000000002 73.0609000000000037
 19.9908000000000001  9.4764199999999992 79.3260999999999967
 20.2011000000000003  9.7071299999999994 84.3061000000000007
 20.7908000000000008  8.5251900000000003 21.9838999999999984
 20.0660999999999987  8.6957500000000003 26.7870999999999988
 20.6274000000000015  9.0292300000000001 32.3524999999999991
 20.7746999999999993  9.7305899999999994 37.7323999999999984
 20.4954000000000001  8.3932500000000001 67.2771999999999935
 20.4116999999999997  8.0908300000000004 72.3733000000000004
 20.6336000000000013 14.3911999999999995 78.2115000000000009
 20.1539999999999999 14.7659000000000002 84.0190000000000055
 19.6863999999999990 13.4472000000000005 20.9529999999999994
 20.1554000000000002 15.0884000000000000 26.4660000000000011
 20.0106999999999999 15.0190999999999999 32.6991000000000014
 21.3335000000000008 15.4202999999999992 37.7064000000000021
 18.7363999999999997 16.4008000000000003 68.9406000000000034
 20.5721999999999987 14.1738000000000000 73.4455999999999989
 20.6580000000000013 21.1016000000000012 77.7556000000000012
 19.5579000000000001 21.3335000000000008 83.3272000000000048
 20.5377000000000010 20.6574999999999989 20.8851000000000013
 20.4083000000000006 20.4842000000000013 26.2413999999999987
 19.9612000000000016 20.6078000000000010 32.4731000000000023
 19.6015000000000015 20.0587000000000018 38.2633000000000010
 19.9399000000000015 20.6231000000000009 67.7505000000000024
 19.8274000000000008 20.3847999999999985 72.8757999999999981
 25.4832999999999998 28.3174999999999990 81.1573999999999955
 25.7302999999999997  0.0811850000000000 23.9057999999999993
 26.0337999999999994  0.1519940000000000 29.0648000000000017
 26.3699000000000012 28.2831000000000010 35.5024000000000015
 26.2295000000000016 -0.0495836000000000 40.7087999999999965
 26.9190000000000005 -0.1404000000000000 65.2018999999999949
 27.5089000000000006 -0.2068910000000000 69.7450999999999937
 26.6543999999999990 -0.2124900000000000 76.2530000000000001
 26.3418999999999990  5.5378200000000000 80.9882999999999953
 25.7357000000000014  5.9786299999999999 24.0360000000000014
 26.5273000000000003  5.7011000000000003 30.1426000000000016
 26.0445999999999991  6.1999599999999999 35.2077000000000027
 26.9356000000000009  6.2103000000000002 40.6995000000000005
 26.8201000000000001  5.3682499999999997 66.1641999999999939
 26.1031000000000013  6.5587200000000001 70.6616999999999962
 26.3363000000000014  6.3379700000000003 76.0798999999999950
 25.8247999999999998 12.3259000000000007 81.2990999999999957
 26.2577999999999996 12.2759000000000000 23.9070999999999998
 25.7095999999999982 11.7211999999999996 29.5151000000000003
 26.2335999999999991 11.3930000000000007 35.2222000000000008
 27.1420999999999992 11.3567999999999998 40.7712999999999965
 26.7957000000000001 10.8841999999999999 64.6594000000000051
 26.0747000000000000 11.7363000000000000 69.5858999999999952
 26.1433999999999997 11.6348000000000003 75.9531000000000063
 25.9583000000000013 17.2504999999999988 81.0264999999999986
 26.4450000000000003 17.5235999999999983 24.7505999999999986
 26.0055000000000014 17.1413000000000011 30.1716000000000015
 26.0300000000000011 17.6904000000000003 34.5921999999999983
 25.3116999999999983 15.8003000000000000 40.6054000000000030
 25.8961000000000006 18.1248000000000005 64.8439000000000050
 26.7539000000000016 17.7678000000000011 69.9658000000000015
 25.9735000000000014 17.1903000000000006 75.8032000000000039
 26.7225999999999999 22.9637999999999991 81.7493000000000052
 26.2070000000000007 23.4253999999999998 24.0328000000000017
 26.0789000000000009 23.5976999999999997 29.2487999999999992
 26.3938999999999986 23.3287000000000013 35.2704999999999984
 25.6029000000000018 21.9486999999999988 41.7939000000000007
 25.6005000000000003 22.3690999999999995 63.5397999999999996
 26.9512999999999998 22.9847000000000001 71.4770999999999930
 26.0430999999999990 23.0353999999999992 76.3935000000000031
  2.6897899999999999 28.1780000000000008 81.7133999999999929
  3.3805700000000001  0.5999300000000000 23.8123000000000005
  3.1703299999999999  0.4187600000000000 29.5378000000000007
  3.0611899999999999  0.1549250000000000 35.2295000000000016
  2.8901500000000002  0.5397040000000000 41.6649000000000029
  3.8030300000000001  1.0352699999999999 64.6697999999999951
  3.8643500000000000  0.0471239000000000 69.9424000000000063
  2.7216300000000002 -0.3077480000000000 75.7159000000000049
  3.1416800000000000  6.0265000000000004 80.7219000000000051
  2.6501800000000002  5.8271600000000001 23.7703999999999986
  2.9183699999999999  6.1595500000000003 29.9528999999999996
  2.7898499999999999  5.4002999999999997 35.4322000000000017
  3.0399600000000002  4.8254799999999998 63.2886000000000024
  3.2813099999999999  6.4506399999999999 70.2720000000000056
  3.0424500000000001  6.1055500000000000 75.5387999999999948
  3.7419099999999998 12.1341999999999999 80.8571000000000026
  3.1503000000000001 11.9818999999999996 24.8538999999999994
  3.1795700000000000 11.6076999999999995 29.5551999999999992
  2.7886799999999998 11.2937999999999992 34.9866999999999990
  4.1580700000000004 10.5359999999999996 40.4725999999999999
  2.8965600000000000 12.4776000000000007 64.2082000000000050
  3.0462799999999999 12.8218999999999994 70.5973999999999933
  2.9550999999999998 11.5234000000000005 76.2108999999999952
  3.1995800000000001 17.8655000000000008 81.7716000000000065
  3.7799200000000002 17.8375999999999983 24.3901000000000003
  3.3335200000000000 17.8842999999999996 29.7322999999999986
  3.3015599999999998 17.7687999999999988 34.7449000000000012
  4.1937199999999999 17.8737999999999992 40.0275999999999996
  4.8343800000000003 17.3628999999999998 64.4736000000000047
  4.2041300000000001 17.3558999999999983 70.8336000000000041
  2.8096100000000002 17.8710999999999984 76.2417999999999978
  3.6025600000000000 23.1921999999999997 81.2365000000000066
  2.3500100000000002 23.5813999999999986 23.5159999999999982
  3.2835000000000001 23.4399000000000015 29.6731000000000016
  3.0373999999999999 23.6037999999999997 35.0161000000000016
  2.9354399999999998 24.9625999999999983 39.5910999999999973
  4.7418800000000001 22.9708000000000006 65.2293999999999983
  3.5825999999999998 23.3121000000000009 70.0122000000000071
  3.1613400000000000 22.7615000000000016 75.6444999999999936
  8.9392999999999994  0.4046790000000000 81.0674999999999955
  8.2584499999999998 28.0758000000000010 23.1182000000000016
  9.1943699999999993  0.1025090000000000 29.9819999999999993
  9.2489500000000007 -0.1730360000000000 34.2984000000000009
  5.8333599999999999  1.5647599999999999 41.8748000000000005
  9.4996600000000004 28.0514000000000010 65.4834000000000032
  9.2264199999999992  0.3576380000000000 69.9193999999999960
  8.9818099999999994 -0.1801370000000000 76.0429000000000030
  8.6933100000000003  5.7532600000000000 80.7841999999999985
  7.5959500000000002  6.1436200000000003 24.5179000000000009
  8.2813499999999998  5.5055600000000000 29.5386999999999986
  9.0768900000000006  6.3246799999999999 34.3671999999999969
  7.7658199999999997  6.6065500000000004 41.1321999999999974
  9.0876800000000006  6.6072499999999996 63.7498999999999967
  9.2260799999999996  6.6436799999999998 70.2278000000000020
  9.0051699999999997  5.8278699999999999 75.5210000000000008
  9.7043599999999994 10.8636999999999997 80.5270000000000010
  9.2902400000000007 11.7864000000000004 24.1966999999999999
  8.6986600000000003 11.8734000000000002 29.3602999999999987
  8.7731300000000001 11.4502000000000006 34.1608999999999980
  6.7857799999999999 12.1155000000000008 36.6193999999999988
  7.8187699999999998 11.6704000000000008 65.0724000000000018
  9.4564299999999992 11.8178999999999998 69.9312999999999931
  9.2362300000000008 11.9108999999999998 75.4762000000000057
 10.1762999999999995 18.0063999999999993 80.1650000000000063
  8.1902100000000004 17.6203000000000003 23.4087999999999994
  9.0352300000000003 17.6713999999999984 29.3279999999999994
  9.2052300000000002 17.5748999999999995 35.1683000000000021
  8.0802800000000001 18.2036000000000016 40.1861999999999995
 10.1986000000000008 17.9322000000000017 65.4416999999999973
  9.1907300000000003 17.4847000000000001 69.9656999999999982
  9.1951999999999998 17.4061999999999983 75.9368000000000052
  8.9184800000000006 23.4366999999999983 81.1329000000000065
  8.5325299999999995 23.9020000000000010 23.7189000000000014
  8.9260099999999998 23.5234999999999985 29.4875000000000007
  8.7655999999999992 23.6313999999999993 34.6679999999999993
  8.6970899999999993 24.3303000000000011 40.8333999999999975
  8.7585899999999999 23.6085999999999991 64.4744000000000028
  9.0109100000000009 23.2436000000000007 69.9613999999999976
  8.4301100000000009 23.2373000000000012 75.5959000000000003
 14.8421000000000003 -0.0038416500000000 81.9326999999999970
 14.2614999999999998 -0.1240940000000000 24.4607999999999990
 14.9382999999999999  0.0858200000000000 29.5210000000000008
 14.4177000000000000  0.7621970000000000 35.2430000000000021
 13.6514000000000006  2.0760800000000001 40.5559999999999974
 15.3041999999999998  1.6945800000000000 64.3663999999999987
 14.6282999999999994  0.5988550000000000 69.6855999999999938
 14.5451999999999995  0.2131410000000000 75.9806999999999988
 14.9951000000000008  5.3575200000000001 80.3873999999999995
 14.5699000000000005  5.9528999999999996 23.7215999999999987
 14.7592999999999996  5.6168699999999996 29.6236999999999995
 14.5216999999999992  6.2826399999999998 35.2854000000000028
 14.2973999999999997  7.0191699999999999 40.4868999999999986
 14.0528999999999993  4.9374599999999997 64.0267999999999944
 14.8079999999999998  5.7514099999999999 70.5079000000000065
 15.2860999999999994  5.4842199999999997 75.4099999999999966
 14.3050999999999995 11.3741000000000003 80.8999000000000024
 14.9810999999999996 12.7960999999999991 24.6838000000000015
 14.4999000000000002 11.5617000000000001 28.7907000000000011
 14.7140000000000004 11.7507999999999999 34.8442999999999969
 13.8895000000000000 11.8498000000000001 40.6634000000000029
 14.3035999999999994 11.7660999999999998 63.8254000000000019
 14.7421000000000006 11.5045000000000002 70.0236000000000018
 14.9827999999999992 11.8488000000000007 75.8516999999999939
 13.6445000000000007 17.4680000000000000 80.6394999999999982
 14.2730999999999995 17.1036000000000001 22.9255999999999993
 15.0952000000000002 17.0655999999999999 29.3399999999999999
 14.9800000000000004 17.1907999999999994 35.2374000000000009
 14.2842000000000002 18.7933999999999983 40.7498999999999967
 15.0509000000000004 16.8802999999999983 65.3988999999999976
 14.9856999999999996 16.7582999999999984 70.5644000000000062
 14.9008000000000003 18.0479999999999983 75.8622000000000014
 15.2695000000000007 24.0615999999999985 80.9770000000000039
 14.9780999999999995 23.2020000000000017 24.1663999999999994
 14.3755000000000006 22.9585000000000008 29.5060000000000002
 14.5507000000000009 23.6018000000000008 34.6460000000000008
 14.2346000000000004 23.4471999999999987 40.6799999999999997
 13.9596000000000000 23.0718999999999994 63.4887999999999977
 14.6064000000000007 23.2040000000000006 70.6441999999999979
 14.6846999999999994 23.2389000000000010 76.0313000000000017
 20.3935999999999993 -0.0042543600000000 81.2254999999999967
 20.0854999999999997  0.0164753000000000 24.2534999999999989
 19.9243999999999986 -0.0366987000000000 29.5465000000000018
 20.4708000000000006  0.2034070000000000 35.6077999999999975
 20.8091000000000008 28.1720000000000006 41.1820000000000022
 18.7103000000000002 27.6230000000000011 66.0583000000000027
 20.9826000000000015  0.4183870000000000 69.5365000000000038
 20.1698999999999984 -0.3515030000000000 76.0140999999999991
 20.1256999999999984  5.9587399999999997 81.0674000000000063
 20.1036000000000001  5.8266099999999996 24.5119000000000007
 20.1435999999999993  5.9444999999999997 29.5014000000000003
 19.8449999999999989  6.0926000000000000 34.8504000000000005
 20.8546000000000014  6.0841900000000004 40.6032999999999973
 21.5594999999999999  4.9593800000000003 64.6996000000000038
 20.5013000000000005  5.6780900000000001 70.4915000000000020
 20.7732999999999990  6.3458699999999997 76.1246000000000009
 19.8455000000000013 12.1102000000000007 81.8417000000000030
 20.0405000000000015 11.2192000000000007 24.2007000000000012
 20.3660999999999994 12.0536999999999992 29.3795999999999999
 20.1987999999999985 11.9725999999999999 34.9162000000000035
 21.3106000000000009 11.0440000000000005 40.5893999999999977
 21.7106999999999992 13.7888000000000002 68.0912000000000006
 20.1112000000000002 11.3847000000000005 69.9497999999999962
 20.7272999999999996 11.3595000000000006 76.3781000000000034
 20.1776000000000018 17.0059000000000005 80.8020999999999958
 20.3444000000000003 18.2363000000000000 23.7713000000000001
 20.3380000000000010 18.0821000000000005 29.3962000000000003
 20.7433000000000014 17.8622000000000014 35.9076000000000022
 19.9593999999999987 17.4845000000000006 41.6173000000000002
 21.2192000000000007 18.7717999999999989 65.5995999999999952
 20.8214000000000006 17.1549000000000014 70.8511000000000024
 20.6189000000000000 17.5773000000000010 75.9209000000000032
 20.5604000000000013 23.3130999999999986 81.1585000000000036
 20.6403999999999996 23.1814000000000000 24.1583000000000006
 20.1078000000000010 23.2356000000000016 29.7755000000000010
 19.6103999999999985 23.4055000000000000 35.0521000000000029
 21.5092999999999996 24.8200000000000003 40.5912999999999968
 21.0695000000000014 23.7142000000000017 64.5043000000000006
 20.1173000000000002 23.0055000000000014 69.6794000000000011
 20.4373000000000005 23.3350000000000009 75.5932999999999993
 27.7882999999999996 26.2698000000000000 80.8966999999999956
  0.2351240000000000 26.3454000000000015 24.2448000000000015
  0.2827800000000000 26.3367000000000004 29.6796000000000006
  0.3302570000000000 26.1448999999999998 35.0996999999999986
  0.7114450000000000 25.8424000000000014 41.3592999999999975
 -0.1758490000000000 25.7761999999999993 64.7699999999999960
  0.7504470000000000 25.8709999999999987 70.6619000000000028
  0.2754190000000000 25.4880999999999993 76.1637000000000057
  0.5402880000000000  2.9989699999999999 80.9971000000000032
 -0.2125100000000000  2.7890100000000002 24.3231000000000002
  0.0898659000000000  2.7751000000000001 29.8887000000000000
  0.1060900000000000  3.2257699999999998 35.4217000000000013
 -0.0617070000000000  3.4695299999999998 40.8316999999999979
 27.8424000000000014  2.6951600000000000 63.9983999999999966
  0.9564180000000000  2.6339299999999999 70.3314000000000021
  0.2838560000000000  3.4588600000000000 75.6663000000000068
 28.3607000000000014  9.4780599999999993 80.2459999999999951
 -0.4350850000000000  8.6436799999999998 24.4744999999999990
 27.9699999999999989  8.3849599999999995 29.6921999999999997
  0.5978830000000001  8.5584799999999994 35.8059000000000012
  0.4071110000000000  8.3935300000000002 41.2477000000000018
  0.0788686000000000  8.7520500000000006 65.0896000000000043
  0.3782400000000000  8.5145099999999996 70.6773000000000025
  0.0859491000000000  8.8161900000000006 75.7130999999999972
  0.0674905000000000 15.0892999999999997 81.4510999999999967
  0.1966540000000000 14.8861000000000008 24.5071000000000012
  0.4414870000000000 14.1887000000000008 29.5532000000000004
 -0.2631230000000000 14.2085000000000008 35.1936000000000035
  1.3787100000000001 14.6719000000000008 39.7740999999999971
  0.8691630000000000 17.2122999999999990 64.0836999999999932
  0.4751600000000000 14.9103999999999992 69.7976000000000028
  0.3403870000000000 14.4992000000000001 76.0842999999999989
  0.7651600000000000 20.7098000000000013 81.6347999999999985
  0.1361200000000000 20.4497999999999998 24.7591999999999999
 -0.2125090000000000 20.0751999999999988 29.4027999999999992
  0.8040960000000000 20.2374000000000009 35.3004000000000033
  0.9075180000000000 20.3342999999999989 41.2744000000000000
  1.1468799999999999 21.3750999999999998 65.0204999999999984
  0.5126510000000000 20.4043999999999990 70.1002000000000010
  0.5398440000000000 20.2909000000000006 75.9756000000000000
  6.4075300000000004 26.5959000000000003 80.7128000000000014
  5.8172100000000002 25.8512999999999984 25.0392000000000010
  5.9944899999999999 26.4237000000000002 29.6893999999999991
  6.0774999999999997 26.8600999999999992 35.0056000000000012
  5.1484800000000002 26.6880999999999986 64.1768000000000001
  6.3434900000000001 26.2427999999999990 70.9040999999999997
  5.6693400000000000 26.5564000000000000 75.8294999999999959
  6.0007799999999998  2.7765499999999999 81.1447000000000003
  5.0528399999999998  3.4169200000000002 23.3326999999999991
  5.8697900000000001  2.6188600000000002 29.8277999999999999
  5.2457500000000001  3.3354800000000000 35.4435000000000002
  5.5678099999999997  4.0291499999999996 39.1283000000000030
  7.6238299999999999  4.1490999999999998 65.9031999999999982
  5.6887800000000004  3.7304100000000000 70.1166999999999945
  6.0908600000000002  3.1574200000000001 75.7334000000000032
  5.7378200000000001  8.6875300000000006 80.7587999999999937
  5.9727399999999999  8.4533000000000005 23.9449000000000005
  5.5046799999999996  9.0093399999999999 30.0475999999999992
  5.8985799999999999  8.8933599999999995 35.2526999999999973
  5.9219400000000002  8.9742200000000008 42.0142000000000024
  5.2416499999999999  8.9672400000000003 64.8007999999999953
  6.0983900000000002  9.2076700000000002 69.9672999999999945
  5.8526800000000003  9.0597399999999997 75.6051999999999964
  4.6217499999999996 14.8775999999999993 80.9133000000000067
  5.0301900000000002 14.8385999999999996 24.1378999999999984
  6.0199499999999997 14.8574999999999999 29.4736000000000011
  5.9276499999999999 14.2005999999999997 34.7043000000000035
  6.1111399999999998 13.8016000000000005 40.0228999999999999
  7.3193000000000001 14.3407000000000000 64.4929999999999950
  6.2894199999999998 14.6574000000000009 70.2690000000000055
  5.8601099999999997 14.4375999999999998 76.1684000000000054
  6.3048000000000002 20.3326999999999991 81.0140999999999991
  5.8232299999999997 21.0494999999999983 25.1159999999999997
  6.6368400000000003 20.6561999999999983 30.2273999999999994
  5.9279900000000003 20.5971000000000011 34.9294000000000011
  6.8813800000000001 21.3485000000000014 39.7545000000000002
  6.9321599999999997 20.4044999999999987 63.3915000000000006
  6.5350700000000002 20.5121000000000002 70.1223999999999990
  6.2456800000000001 20.3438000000000017 75.7433999999999941
 11.3187999999999995 25.9967000000000006 81.3864999999999981
 11.7150999999999996 24.8413000000000004 23.8029000000000011
 11.6210000000000004 26.1348999999999982 29.4732999999999983
 12.0189000000000004 27.1813000000000002 34.9921999999999969
 12.0353999999999992 26.2670999999999992 39.3975999999999971
 13.1959000000000000 27.3677999999999990 63.6445000000000007
 11.8732000000000006 26.4710999999999999 70.4065999999999974
 11.8773000000000000 26.2956000000000003 75.8680999999999983
 11.2157000000000000  3.5043500000000001 80.3748999999999967
 11.0420999999999996  3.3889499999999999 24.4202000000000012
 11.7921999999999993  3.0004499999999998 29.2753000000000014