Cl
  1.000000
30.29431871	0.00000000	0.00000000
0.00000000	30.29431871	0.00000000
0.00000000	0.00000000	90.88295613
Cl Na 
1498 1509 
car
 29.36818671	28.86820000	-3.35427000
 29.58352871	-1.10614000	3.06193000
 29.09750000	-1.13259000	8.37660000
 29.34116671	-0.85643400	13.55270000
 28.64640000	-1.07091000	20.61320000
 29.35866071	-0.70810100	27.26610000
 28.96430000	-0.40819700	32.59450000
 29.78857571	-0.94429600	38.63700000
 28.95950000	28.86630000	44.76680000
 29.10940000	-1.06396000	63.47460000
 28.95690000	28.75270000	69.51290000
 29.00200000	-1.16123000	75.23730000
 28.54380000	28.43320000	81.65230000
 29.09380000	5.03237000	87.27080000
 28.95700000	4.75090000	26.83480000
 29.09990000	4.90195000	32.94310000
 29.36725671	5.13907000	38.68990000
 28.90700000	4.29523000	44.24670000
 29.40076871	5.59026000	70.39800000
 28.97060000	5.11375000	75.95370000
 28.62360000	5.66916000	80.82720000
 29.38528871	10.97160000	87.33810000
 30.16604271	10.43460000	26.81490000
 28.90540000	10.39760000	32.89550000
 28.92080000	10.75870000	39.06970000
 29.15617871	11.16980000	68.50990000
 29.44493071	10.94100000	75.34750000
 29.53449871	10.93270000	81.69450000
 30.01811371	15.96860000	-3.12855000
 28.64730000	16.66250000	26.92470000
 29.23378871	16.69410000	33.13160000
 28.77320000	16.71460000	38.76920000
 28.60560000	17.41800000	44.93280000
 28.66570000	17.18170000	68.95190000
 29.19973871	17.13510000	75.49960000
 29.71032371	17.41550000	81.69780000
 29.42518871	23.53080000	-3.02546000
 28.58590000	23.07770000	27.07120000
 28.66630000	22.53960000	32.19790000
 28.82280000	22.41110000	38.61340000
 29.78728471	23.00300000	44.87470000
 29.36969471	22.97730000	69.55430000
 28.39430000	22.85310000	74.94580000
 28.61030000	23.38290000	81.94780000
 4.85906000	-0.62191900	-3.31292000
 4.66446000	-0.38362500	2.86235000
 4.90695000	-0.98416800	14.76130000
 4.84534000	29.02050000	26.76910000
 4.91741000	-1.05260000	32.53630000
 5.47506000	-0.95170800	39.16060000
 5.00385000	-0.93585900	44.80680000
 4.35296000	-0.31350900	62.77390000
 4.82027000	-1.04843000	70.12170000
 5.08065000	-0.82375900	76.21180000
 5.72552000	28.78220000	81.79810000
 5.10447000	4.99011000	87.03690000
 4.90709000	5.12475000	26.64680000
 5.49727000	4.65855000	32.02840000
 5.10664000	5.02823000	38.15510000
 4.36929000	4.50656000	45.21080000
 4.46629000	4.54914000	70.02680000
 4.23862000	4.54473000	75.31620000
 4.70167000	5.32639000	81.35370000
 5.24903000	10.47200000	87.30800000
 4.90592000	10.83530000	26.60190000
 5.26346000	11.65180000	33.31220000
 5.08091000	10.56390000	38.86900000
 4.63056000	10.88620000	44.32980000
 5.63423000	11.09190000	69.53880000
 4.58286000	11.20370000	75.38270000
 4.11780000	10.55030000	81.18290000
 5.25136000	16.09580000	86.83860000
 4.83758000	17.25240000	27.02210000
 4.63547000	17.31260000	33.11630000
 4.79907000	16.75010000	38.40780000
 4.61048000	16.67090000	44.81380000
 5.07416000	17.37150000	69.36460000
 4.86528000	16.70280000	75.29430000
 4.44840000	17.17660000	80.62380000
 5.23212000	22.66710000	-2.95839000
 5.05192000	23.56010000	26.56630000
 5.20070000	23.41410000	32.57090000
 5.44160000	24.01920000	38.89830000
 4.77795000	23.80060000	44.93870000
 4.98316000	22.81800000	69.90400000
 4.59876000	23.05060000	75.09090000
 4.88461000	22.92220000	82.26610000
 11.01490000	29.02470000	87.27330000
 10.39530000	-0.92728800	2.43359000
 10.97540000	-0.72576400	8.56474000
 10.18520000	-1.05749000	14.47800000
 10.68240000	-0.85847600	26.64400000
 10.61490000	-1.13715000	33.48830000
 11.08070000	29.10240000	38.79110000
 10.88540000	-0.83855000	44.44980000
 10.47830000	-0.94278000	70.00830000
 10.80500000	-0.72249400	75.46820000
 11.54600000	29.07790000	81.37020000
 11.21740000	4.95506000	-3.30893000
 10.43630000	4.69153000	27.44280000
 11.05200000	5.10818000	32.80120000
 10.64840000	4.69781000	39.35870000
 10.82150000	5.15019000	45.36630000
 10.95790000	4.65827000	69.23840000
 10.10730000	4.53453000	75.31510000
 10.53260000	5.39252000	81.44190000
 10.86910000	10.79750000	87.33600000
 11.42950000	11.16010000	26.83110000
 11.35000000	11.11860000	33.07310000
 10.63330000	10.67870000	39.03890000
 10.56160000	10.82630000	69.11530000
 10.80870000	11.31150000	75.54570000
 11.76070000	11.51200000	81.37310000
 11.04170000	17.24160000	87.12370000
 11.20460000	17.46840000	26.61100000
 11.10620000	16.72740000	33.21030000
 10.08250000	17.35070000	39.03240000
 10.95950000	17.05880000	44.58940000
 11.01120000	16.39060000	69.11860000
 10.73120000	17.28210000	74.68860000
 10.77390000	17.24750000	81.06840000
 10.73040000	23.39670000	-2.98098000
 11.61590000	23.27040000	27.20720000
 11.28550000	22.76820000	32.78020000
 11.00870000	23.30480000	39.29440000
 10.26540000	22.11300000	43.99840000
 10.64320000	22.79240000	68.71000000
 10.61680000	22.97950000	75.73530000
 10.95510000	22.48330000	81.38020000
 16.78120000	-0.89325300	-3.13956000
 15.99970000	-1.13352000	2.85948000
 16.14100000	-0.34712000	7.80943000
 17.82670000	-0.95726300	14.73290000
 17.20210000	-1.02244000	20.10900000
 16.59710000	-0.72872300	27.11600000
 16.71420000	28.90730000	32.84710000
 17.53180000	28.83050000	38.76370000
 16.64520000	28.99720000	45.08660000
 16.19600000	-1.00613000	51.21230000
 16.57160000	-1.02995000	63.44100000
 16.75680000	-1.08965000	69.25010000
 16.72000000	-1.11789000	75.41020000
 16.81050000	-1.00990000	81.14070000
 17.37790000	5.47341000	-3.08298000
 17.02090000	4.55828000	27.24010000
 17.52160000	4.82502000	32.45630000
 17.04520000	4.79899000	38.52870000
 16.80930000	4.01112000	45.09840000
 16.28630000	4.83442000	69.43100000
 16.92100000	5.48424000	75.88080000
 17.40170000	5.43620000	81.40590000
 17.45290000	10.87170000	-3.33947000
 16.68510000	10.70200000	26.11260000
 16.90380000	10.15090000	33.28310000
 16.67360000	10.60160000	39.14230000
 16.10310000	11.32330000	44.82800000
 16.42900000	10.51060000	68.76620000
 16.43060000	10.68920000	75.24410000
 16.66840000	10.69770000	81.54770000
 17.11330000	16.32940000	-3.04396000
 16.56270000	17.33590000	26.40240000
 16.94450000	16.46860000	32.28670000
 16.62360000	16.61850000	38.31630000
 17.63260000	16.57630000	44.73800000
 16.96220000	17.20650000	69.56060000
 17.24780000	17.09400000	75.15620000
 17.21310000	17.32150000	82.38390000
 17.63920000	23.40470000	-3.24929000
 17.02430000	22.78450000	26.27990000
 17.03830000	22.50400000	33.05440000
 17.37230000	23.05010000	38.23040000
 16.03450000	22.51840000	44.84820000
 16.48100000	23.00560000	69.12300000
 16.66160000	23.52330000	75.60280000
 17.46200000	23.14200000	82.29750000
 22.90480000	29.09980000	-3.41493000
 22.85800000	-0.86155700	2.29418000
 22.80590000	-1.10551000	8.14985000
 23.65660000	29.09410000	25.99080000
 23.21840000	29.07060000	32.57200000
 24.03340000	29.00370000	38.38060000
 23.73800000	28.79930000	44.11850000
 23.22550000	-1.05840000	63.55960000
 23.18670000	-1.06589000	69.00950000
 23.00860000	28.83970000	75.09630000
 23.03710000	28.93750000	81.77890000
 23.34510000	4.77208000	87.29150000
 23.26890000	4.83413000	26.60840000
 22.92100000	4.78953000	32.86430000
 23.19040000	5.59844000	38.68390000
 24.28380000	5.01261000	44.75040000
 23.42270000	4.51783000	69.03880000
 23.36300000	4.69674000	75.24070000
 22.99460000	5.54604000	81.84230000
 22.78530000	11.00530000	-3.44596000
 23.47850000	10.55260000	27.21810000
 23.45570000	10.20030000	32.26360000
 22.33920000	10.51820000	38.67810000
 23.21480000	10.76200000	44.88840000
 23.74890000	10.99130000	69.68910000
 23.22660000	11.15000000	75.16300000
 22.56020000	11.17420000	81.00630000
 23.12390000	16.90270000	-3.23327000
 22.83780000	16.62480000	26.84660000
 22.43610000	16.69370000	32.22190000
 22.92930000	17.12420000	38.97380000
 22.85460000	16.86970000	43.99520000
 23.61280000	17.43400000	69.10350000
 23.43080000	16.78820000	75.63240000
 22.96280000	16.98880000	81.51670000
 22.99000000	22.26940000	-2.76504000
 22.14750000	24.25660000	26.28460000
 23.52710000	22.39400000	32.53860000
 23.11150000	23.08960000	38.23130000
 23.13220000	22.28390000	44.68140000
 23.04540000	23.40600000	68.52220000
 22.46130000	23.10540000	76.02530000
 22.25050000	22.99620000	81.02990000
 29.69546371	1.90513000	-0.33471300
 29.63326571	1.80452000	23.68020000
 29.12991871	2.13742000	29.76550000
 29.30002971	1.77405000	36.20440000
 28.87870000	1.83664000	41.38000000
 29.36157771	2.00217000	73.20270000
 29.30909571	1.64645000	78.53120000
 29.40860871	1.39125000	84.24450000
 28.75170000	7.80482000	-0.74032900
 28.98260000	8.51201000	23.33270000
 29.82213371	8.27212000	30.18480000
 28.95700000	7.82954000	35.24440000
 29.18187871	7.91857000	41.92380000
 29.48204471	8.57405000	72.54540000
 29.17873871	8.08197000	78.46250000
 28.49100000	8.36771000	84.51440000
 28.74970000	14.37140000	23.64850000
 29.21186871	13.80760000	29.63890000
 29.19926871	13.94120000	35.86670000
 29.26946871	13.98030000	42.05010000
 28.98590000	14.28070000	71.40540000
 28.86030000	14.63440000	79.27800000
 29.69717771	14.14340000	84.49650000
 29.52040471	20.01540000	-0.29404500
 28.39970000	20.51470000	23.15100000
 28.87060000	19.94140000	29.42710000
 28.97140000	19.28070000	35.40960000
 29.17961871	19.84940000	41.95390000
 28.60670000	19.74670000	72.64180000
 28.73730000	20.08560000	77.86760000
 28.83040000	19.99660000	84.64830000
 29.53646171	25.39710000	-0.03555230
 28.70610000	26.09110000	23.98510000
 29.46911471	26.69710000	30.15730000
 29.09230000	26.09940000	35.43100000
 29.13463871	26.65440000	41.40290000
 29.13403871	25.94730000	72.53950000
 29.20893871	25.63600000	78.09400000
 29.09270000	26.58010000	84.81910000
 4.39110000	2.12678000	-1.00341000
 4.33662000	1.66874000	24.00890000
 5.12344000	1.45567000	29.92380000
 5.15120000	1.43463000	35.66680000
 4.72311000	1.97524000	42.14080000
 4.59183000	1.73761000	73.05340000
 4.41008000	2.06925000	78.70410000
 4.78009000	1.75534000	83.88660000
 4.79049000	8.24918000	23.04120000
 4.57988000	8.44706000	29.91970000
 5.47539000	7.48606000	34.89970000
 4.29803000	7.98405000	41.75060000
 4.57516000	8.07970000	72.59620000
 4.44413000	7.92703000	77.74350000
 4.80384000	8.42609000	84.31450000
 5.09403000	13.39170000	-0.32528300
 5.16786000	13.98100000	23.96590000
 4.77716000	13.94370000	29.73230000
 4.74397000	13.70560000	35.47460000
 4.77073000	13.86420000	41.37210000
 5.07506000	14.37140000	71.74670000
 5.28793000	12.97690000	78.71440000
 5.34413000	13.69000000	83.74020000
 4.33573000	19.42130000	-1.58788000
 4.18435000	20.32570000	23.83130000
 4.75617000	19.78200000	29.88760000
 5.24598000	20.67790000	35.47950000
 4.71176000	19.69690000	41.59740000
 4.83202000	20.29970000	72.46570000
 5.63170000	20.02380000	77.99740000
 5.26053000	19.37830000	84.22800000
 3.98070000	26.02360000	24.10050000
 4.38820000	25.85780000	30.15000000
 4.78304000	26.08930000	36.15930000
 5.25025000	26.81340000	42.05250000
 4.04023000	26.34460000	72.78150000
 4.97076000	25.91100000	78.95240000
 5.26100000	26.16690000	85.24780000
 10.62900000	1.71792000	-1.01396000
 10.52610000	1.80850000	23.33660000
 11.17550000	2.17641000	30.51310000
 10.90050000	2.52560000	35.78820000
 11.41700000	2.37234000	41.51750000
 10.89800000	2.24073000	73.16780000
 11.10250000	2.19614000	78.21400000
 10.81810000	1.34382000	84.05740000
 10.63180000	7.80225000	-0.63906000
 10.92570000	8.30437000	22.92840000
 11.27330000	8.36201000	30.11700000
 11.74450000	7.51128000	36.28430000
 11.42200000	7.43320000	42.33480000
 10.30760000	8.03973000	72.00740000
 10.86970000	7.63335000	78.92900000
 11.39220000	8.42802000	84.29150000
 11.14290000	14.04640000	-0.17538800
 10.91290000	14.27410000	24.35320000
 11.03980000	14.01260000	29.56080000
 10.13160000	14.70640000	35.91110000
 10.72150000	14.22380000	42.19830000
 11.05970000	14.19070000	72.17620000
 11.26320000	13.71720000	78.67250000
 10.81830000	14.35400000	84.62820000
 10.47130000	19.18500000	-0.39654100
 11.81430000	20.04020000	23.34950000
 11.05910000	19.69980000	29.95980000
 10.99390000	20.32810000	36.30960000
 10.78910000	19.71600000	41.72400000
 10.77470000	19.95670000	72.50110000
 11.44190000	19.99600000	77.60560000
 10.94400000	20.48430000	84.63900000
 10.84860000	26.39120000	-0.56012500
 11.02370000	25.45290000	23.33060000
 10.81230000	25.92640000	29.83880000
 10.46470000	25.79780000	35.30540000
 10.59670000	25.92030000	42.55950000
 11.06900000	26.31600000	72.36510000
 10.74280000	25.59090000	78.80590000
 10.92710000	26.00190000	84.08350000
 16.21770000	2.57362000	-0.57747400
 16.55940000	2.16724000	23.87580000
 17.24970000	1.77875000	29.84630000
 17.02860000	1.72541000	35.57620000
 17.39730000	0.97822900	41.96250000
 16.78940000	1.84496000	72.26670000
 17.12960000	1.40227000	78.89380000
 17.14300000	2.29540000	84.35390000
 17.11570000	7.52977000	23.94150000
 17.33940000	7.76247000	29.40860000
 16.49720000	8.13412000	36.42490000
 17.21970000	7.57113000	42.23350000
 17.04430000	7.63060000	71.25970000
 16.63930000	7.79742000	78.86360000
 16.94530000	8.13010000	84.67410000
 16.78850000	13.68370000	-0.48888700
 17.18740000	14.23120000	23.93470000
 16.89190000	13.75050000	29.33800000
 16.27630000	13.25310000	35.59140000
 17.32120000	13.95110000	41.63370000
 16.70470000	13.92000000	72.36810000
 16.73370000	13.46630000	78.57180000
 17.35010000	14.44800000	84.80660000
 16.75760000	20.22670000	-0.41752800
 17.08040000	19.82730000	23.65560000
 17.13950000	20.06190000	29.53850000
 16.72000000	19.86200000	35.74410000
 16.54560000	19.07080000	41.66040000
 16.99900000	19.75960000	72.48420000
 17.32390000	19.68750000	78.45630000
 18.01530000	19.99160000	84.79400000
 16.88670000	26.12140000	23.61240000
 17.52270000	26.11740000	29.61200000
 17.16000000	26.01290000	35.17960000
 16.85420000	26.30420000	41.55440000
 16.66610000	25.57930000	72.41300000
 17.16880000	26.08180000	78.64940000
 17.07750000	26.34180000	84.64390000
 23.33680000	1.91472000	-0.93439500
 23.20970000	1.85768000	22.87600000
 23.41050000	1.92105000	29.33330000
 23.35800000	1.91801000	35.39720000
 23.10120000	2.20504000	41.24850000
 22.84810000	1.84180000	72.40070000
 22.82690000	2.17818000	78.48870000
 22.60300000	2.32686000	84.60030000
 23.18520000	7.75237000	-0.65175000
 23.03460000	8.22500000	23.36310000
 23.33020000	7.12934000	29.62550000
 22.83880000	8.11327000	35.15450000
 22.87260000	7.61342000	42.42130000
 22.75930000	6.75828000	72.38580000
 22.51910000	7.96986000	77.69420000
 22.63390000	8.39977000	84.62050000
 23.55950000	14.61650000	-0.15714600
 23.60970000	14.18890000	22.97960000
 22.82250000	13.67350000	29.59440000
 23.08990000	13.97660000	35.10800000
 23.05950000	13.74440000	41.85470000
 23.27120000	13.79040000	72.47400000
 23.38270000	14.43390000	78.03280000
 22.62780000	14.39740000	85.26510000
 23.41010000	19.82510000	-0.01532130
 23.02100000	20.40460000	24.02040000
 22.09110000	20.32420000	29.77970000
 22.91890000	20.18960000	35.55480000
 22.74320000	20.19270000	41.36900000
 22.94030000	20.14720000	72.30260000
 22.71200000	19.65520000	77.65750000
 23.31830000	20.59990000	84.95100000
 22.88260000	26.25970000	-0.51200300
 23.33210000	25.98770000	23.33860000
 23.10610000	26.41050000	30.28470000
 23.36980000	25.80570000	35.04870000
 23.57000000	26.31530000	41.56530000
 22.46700000	25.76810000	72.06290000
 22.45000000	26.49690000	78.15880000
 22.93860000	26.20640000	84.95120000
 1.51334000	28.57190000	-0.44189000
 1.68279000	-0.84275100	11.49030000
 1.42087000	28.70770000	23.76030000
 1.90065000	29.01670000	29.09850000
 2.47912000	-1.02834000	35.99530000
 1.86198000	-0.99232800	41.66310000
 1.70208000	-1.15797000	47.77990000
 2.31399000	-0.97996800	66.12290000
 1.44610000	-1.13536000	72.51540000
 1.87827000	28.36660000	79.06650000
 2.67791000	29.01780000	84.31550000
 1.92477000	5.22538000	-0.61630000
 1.87917000	5.79531000	23.19400000
 2.04900000	4.87968000	30.02320000
 1.87848000	5.62287000	36.59240000
 1.68329000	4.85316000	41.16160000
 1.46400000	4.57170000	72.77180000
 1.53602000	4.79598000	78.12480000
 1.62860000	5.72671000	84.40980000
 1.93879000	11.39330000	23.28930000
 2.51463000	11.16600000	30.33410000
 1.37244000	11.21710000	35.66940000
 1.17965000	11.00110000	42.30930000
 1.83881000	11.47060000	72.19190000
 1.12864000	10.53510000	78.51600000
 1.70838000	10.75170000	84.15880000
 1.77961000	16.38980000	-0.49277300
 1.79106000	17.29960000	23.81120000
 1.78634000	17.36000000	29.98840000
 1.94271000	16.33160000	36.18850000
 2.03946000	17.30290000	41.50500000
 1.17032000	17.00050000	72.01230000
 1.48434000	16.77550000	78.19370000
 2.09562000	16.87380000	84.21700000
 2.35745000	22.76590000	-0.11281400
 1.07021000	22.89470000	23.49340000
 1.95460000	22.78030000	29.62490000
 0.86393100	22.79640000	35.34490000
 2.06856000	22.54630000	41.56580000
 2.09815000	23.46790000	72.33600000
 2.54221000	23.18100000	77.85730000
 2.29576000	22.89640000	85.18020000
 7.71667000	29.10330000	-0.93574500
 7.54159000	-0.96109000	5.44721000
 7.32149000	-0.91428100	11.57220000
 7.45784000	-0.84209200	17.72970000
 7.32155000	-0.44213500	23.88650000
 8.17190000	-0.83196600	29.45030000
 7.95029000	28.90590000	36.16570000
 7.63417000	-0.16272500	42.26320000
 8.35089000	-1.14472000	47.56160000
 8.35140000	-0.95971200	60.04080000
 7.52518000	-0.61242500	66.25540000
 7.53155000	28.75360000	73.31590000
 7.92484000	-1.09391000	78.71560000
 8.15955000	28.47010000	84.72110000
 7.36700000	4.80501000	-0.71583100
 7.96856000	5.22386000	23.79730000
 7.83957000	4.97483000	30.01010000
 8.32927000	4.65782000	35.14610000
 7.84569000	4.89490000	42.19240000
 7.42187000	4.50463000	72.80660000
 6.75916000	4.56035000	78.66270000
 7.73743000	5.34663000	84.12130000
 8.37190000	10.77500000	-0.56160200
 8.46245000	11.03270000	23.20670000
 8.46963000	11.06790000	30.10530000
 7.78852000	10.37040000	36.67950000
 7.85988000	11.23550000	41.97650000
 7.03815000	11.09300000	73.00990000
 8.36225000	10.93150000	78.30280000
 8.19402000	10.96070000	84.49770000
 7.84987000	16.69360000	-0.42679000
 8.34494000	17.47430000	23.94300000
 8.74525000	17.13740000	29.25650000
 7.45777000	17.68400000	35.59870000
 7.43495000	17.28570000	41.69350000
 7.85865000	17.15090000	71.73100000
 8.30136000	17.22600000	78.54720000
 7.96559000	16.92340000	83.86470000
 8.42954000	22.77490000	-0.55402700
 7.74136000	22.44060000	23.74020000
 7.78252000	22.49450000	29.62210000
 7.72814000	23.63350000	35.74320000
 7.76631000	22.82490000	41.39580000
 8.06542000	23.62780000	72.28080000
 7.11676000	22.99920000	78.83670000
 8.06499000	23.10330000	84.86730000
 14.14480000	-0.62917800	-0.48610500
 13.26980000	-0.84823700	5.20186000
 14.40930000	-0.80045700	11.75370000
 14.06250000	-0.59085000	24.08990000
 13.15970000	29.00150000	29.97820000
 13.97680000	28.81900000	35.82780000
 14.09000000	28.98210000	42.05700000
 13.80000000	-1.17256000	66.28720000
 13.76700000	-1.03997000	72.70080000
 13.77030000	-1.00893000	77.91490000
 13.98970000	28.87390000	84.14010000
 13.51330000	4.93292000	-0.18944200
 13.33500000	4.93937000	24.34280000
 14.12500000	4.65484000	29.35170000
 14.23900000	4.45011000	36.01310000
 14.76140000	4.46370000	41.51010000
 13.70410000	4.93344000	72.68300000
 14.01850000	5.49441000	78.76400000
 14.06700000	5.46944000	84.40210000
 13.77000000	10.54410000	24.41560000
 13.75130000	10.90520000	29.61560000
 13.54480000	11.34040000	35.93790000
 13.22770000	11.62360000	41.06150000
 14.32580000	11.23220000	72.52220000
 13.86600000	10.96060000	79.25440000
 14.27890000	10.63180000	84.49990000
 14.28780000	16.79380000	-0.89270000
 13.51770000	16.63490000	23.40980000
 14.25410000	16.43480000	29.93470000
 13.99800000	17.22970000	35.67780000
 13.32760000	16.72450000	42.10380000
 13.63820000	17.10800000	72.10600000
 13.66470000	17.60660000	79.11380000
 13.42090000	17.53000000	84.90890000
 13.60730000	23.26610000	-0.76836400
 13.93160000	23.34460000	24.17760000
 14.14110000	22.81200000	30.29630000
 13.81930000	23.02890000	35.69560000
 14.11140000	23.39630000	41.89590000
 13.40200000	22.87650000	72.45000000
 14.40990000	23.21910000	78.72970000
 14.07530000	22.97850000	85.38100000
 19.56440000	-0.60710300	-0.68669100
 20.72760000	-0.61058400	17.77500000
 19.87280000	-0.97300600	23.54360000
 20.16200000	28.86730000	29.77900000
 20.93290000	-1.10208000	35.22610000
 20.30060000	-0.47066200	41.48120000
 19.76430000	-0.92162300	66.47060000
 19.83950000	-0.71649200	71.60830000
 19.90440000	-0.32979800	78.22790000
 19.47590000	-1.02476000	84.68380000
 20.11060000	5.17146000	-0.73491900
 20.42780000	4.29011000	23.54680000
 20.03190000	4.53748000	29.48550000
 20.03940000	5.08342000	35.62050000
 19.72220000	4.94755000	42.34940000
 19.92800000	4.47314000	71.90410000
 20.52260000	5.24776000	79.30940000
 19.95760000	4.96330000	84.33580000
 20.29560000	10.72750000	-0.62779100
 21.11020000	11.19940000	24.20480000
 19.98780000	11.15100000	28.93380000
 20.07300000	10.85000000	35.82830000
 19.99240000	10.55810000	42.35740000
 20.52720000	10.41900000	72.54220000
 19.81580000	10.48960000	78.06830000
 19.89860000	11.71450000	84.48360000
 20.13130000	17.02980000	23.32930000
 19.36380000	17.10760000	28.63910000
 20.11430000	16.15960000	35.82650000
 19.91710000	16.79490000	41.83710000
 20.69840000	16.12700000	71.52560000
 20.36930000	16.56220000	78.08390000
 20.43770000	17.02910000	85.07740000
 20.29890000	22.61160000	22.92800000
 19.98850000	23.16430000	29.02210000
 20.51760000	23.14590000	35.24550000
 20.75500000	23.83360000	41.77710000
 19.91720000	23.62090000	71.66860000
 19.55620000	22.75280000	77.96850000
 20.18810000	23.06440000	84.71820000
 26.67290000	28.83150000	-0.26646000
 25.51900000	-0.95498000	5.50609000
 26.83490000	-0.99025500	10.65720000
 26.26190000	28.47650000	22.80900000
 26.10680000	-0.97510200	29.44930000
 26.12620000	28.46290000	35.07290000
 26.40240000	-0.65409800	41.72190000
 25.52110000	-0.89584300	47.51170000
 25.98410000	-1.08642000	53.84200000
 26.08170000	-1.13148000	60.23660000
 26.29510000	-1.11507000	66.18670000
 26.06440000	-0.36696600	72.57110000
 25.35340000	28.32390000	78.55450000
 26.02450000	29.03290000	84.24570000
 25.37060000	4.39925000	-0.14038100
 26.40460000	5.46419000	23.66780000
 26.59290000	5.17046000	29.77520000
 25.81610000	5.49867000	35.20510000
 26.47770000	5.29657000	41.13380000
 26.50010000	5.35717000	72.99330000
 25.65190000	5.11009000	78.30140000
 26.52280000	4.68133000	84.02340000
 25.92380000	10.53780000	-0.79085800
 26.12360000	11.29740000	24.06040000
 25.99190000	10.98940000	29.68200000
 25.90490000	11.05520000	35.37380000
 25.86680000	10.77570000	41.44010000
 26.83250000	11.36670000	71.62790000
 26.37640000	10.68950000	78.59700000
 26.14600000	11.23330000	83.86970000
 26.50760000	16.89390000	-0.14307200
 25.93870000	17.15280000	24.14250000
 25.82790000	16.27540000	29.71080000
 25.32730000	16.89210000	35.68840000
 25.99920000	17.08450000	41.89050000
 25.93730000	16.30710000	72.38670000
 26.42290000	17.44980000	78.38890000
 25.70270000	16.78130000	84.46850000
 26.73420000	23.01150000	-0.75824500
 25.75340000	22.67090000	24.12690000
 25.49770000	23.04760000	29.33400000
 26.21330000	23.06360000	35.51910000
 26.87110000	23.58140000	41.68510000
 25.95340000	23.24020000	71.86910000
 26.25150000	23.28110000	79.04340000
 25.75470000	23.63690000	84.76680000
 1.16273000	2.75197000	-3.33206000
 1.92849000	2.46615000	26.68040000
 1.73058000	2.06078000	33.40980000
 2.62670000	2.54081000	38.27030000
 1.18574000	1.39587000	44.42490000
 1.80749000	1.95303000	69.75290000
 1.62153000	1.21089000	75.22920000
 1.63759000	2.35949000	82.05300000
 1.98050000	8.07446000	-3.33709000
 2.53350000	7.63202000	26.53670000
 1.68318000	7.49305000	33.20590000
 1.73515000	8.49548000	38.61580000
 2.11924000	7.43085000	44.70970000
 1.54904000	8.51538000	69.35560000
 1.66207000	7.80865000	75.18210000
 1.81030000	7.92293000	81.34480000
 2.56051000	13.46460000	87.03970000
 2.11818000	13.41370000	26.70290000
 1.92072000	13.49370000	32.33540000
 2.06611000	13.41840000	39.18710000
 2.09913000	13.39900000	45.21130000
 1.04143000	14.53700000	68.75730000
 1.38013000	13.80070000	75.89200000
 1.94223000	13.66200000	81.18980000
 0.95015000	20.21420000	87.16600000
 1.84736000	20.41060000	26.45940000
 1.69622000	20.12840000	32.66850000
 1.85270000	20.12790000	37.83450000
 2.36789000	19.26340000	44.79510000
 1.89141000	19.64310000	69.60860000
 1.10067000	20.63250000	74.91920000
 1.31250000	21.13830000	81.29800000
 2.34836000	26.00170000	-2.99517000
 1.49501000	25.67850000	26.58240000
 1.69468000	25.83280000	33.01290000
 1.80283000	26.28140000	38.51620000
 2.06477000	26.37450000	44.05290000
 2.37548000	26.13980000	69.07750000
 1.67374000	26.15640000	75.44150000
 2.31773000	25.72980000	82.62920000
 7.92239000	1.83302000	-3.52376000
 7.82442000	2.15955000	26.51740000
 8.12430000	1.92824000	32.59430000
 7.81642000	2.21164000	38.51120000
 7.92443000	2.39297000	45.21960000
 7.86464000	1.78212000	69.76230000
 7.37170000	1.78142000	75.97490000
 8.07106000	1.90862000	81.08540000
 8.15281000	7.65284000	87.08740000
 7.90968000	8.49608000	26.80910000
 8.75118000	8.22416000	32.38550000
 7.89195000	7.90924000	39.38410000
 7.64357000	8.22208000	44.50090000
 7.66798000	7.64801000	70.02980000
 7.71313000	7.64828000	75.47560000
 7.23642000	8.13357000	81.08830000
 8.19914000	13.70140000	-2.58805000
 7.88709000	14.11620000	26.56600000
 7.35542000	14.75410000	32.42220000
 7.59017000	13.54030000	38.83460000
 7.57838000	13.98730000	44.61600000
 7.98770000	13.76370000	69.43360000
 7.87423000	14.27310000	75.80950000
 8.26022000	13.83840000	80.82880000
 8.18359000	19.32420000	-3.36742000
 8.18634000	20.25880000	26.71390000
 8.33322000	20.47570000	32.33930000
 7.53425000	20.71830000	38.86960000
 7.24914000	20.46460000	44.49000000
 7.87330000	20.74710000	69.37820000
 7.38089000	20.84180000	75.34870000
 8.94806000	20.12810000	81.48240000
 8.21560000	25.97350000	-2.91541000
 7.70943000	26.19080000	25.93020000
 8.28985000	26.66670000	32.01530000
 8.62999000	26.93110000	39.47900000
 8.03675000	26.38580000	44.41350000
 8.08288000	26.48290000	69.43090000
 7.78210000	25.82020000	75.76230000
 8.14774000	25.65050000	81.43950000
 14.08610000	2.06095000	87.17160000
 13.49690000	2.11754000	26.66010000
 14.32600000	1.57214000	33.42550000
 14.62330000	1.38706000	38.72980000
 13.87680000	1.70601000	44.46450000
 14.06000000	1.51841000	69.51460000
 14.82560000	2.27225000	75.50690000
 14.09860000	2.63063000	81.35980000
 14.59160000	8.59811000	-3.18666000
 13.28980000	7.58719000	26.65650000
 14.29390000	7.43979000	32.56720000
 14.19450000	7.04543000	39.02400000
 14.13960000	7.40235000	45.00700000
 13.35710000	7.54086000	68.94180000
 13.54680000	7.61446000	75.45300000
 13.80540000	8.19665000	81.84710000
 13.93630000	13.75650000	86.96530000
 13.81570000	13.65990000	26.82640000
 13.82930000	13.70630000	32.97490000
 13.42730000	14.40650000	38.51460000
 14.21320000	14.46170000	44.89170000
 14.10870000	14.06370000	69.74370000
 14.23700000	14.26470000	75.21320000
 14.69340000	14.31630000	81.77750000
 13.57000000	20.42980000	-3.25144000
 13.76210000	19.84590000	27.57090000
 14.59870000	19.80990000	32.70220000
 13.54480000	19.91000000	38.57340000
 14.03840000	19.57440000	44.65920000
 13.45890000	20.09620000	69.09850000
 14.21110000	19.94030000	75.32130000
 14.00670000	19.92160000	81.77520000
 13.97520000	26.47920000	-3.32286000
 14.42430000	25.98930000	26.64510000
 13.62300000	25.84730000	32.83290000
 13.88930000	25.97490000	38.44780000
 14.25500000	26.36220000	44.82560000
 13.59130000	26.01440000	68.88020000
 13.46690000	25.87030000	76.13060000
 14.23680000	25.76240000	81.45780000
 20.14440000	2.04394000	-3.26240000
 20.84160000	2.04000000	27.08740000
 20.10730000	1.41821000	32.40980000
 20.31480000	1.73753000	38.43120000
 19.81060000	1.40630000	44.70210000
 19.61330000	1.82939000	68.66870000
 19.60480000	1.93044000	74.98390000
 20.33390000	2.18188000	81.77850000
 20.58190000	7.68904000	-3.34143000
 19.85210000	7.32073000	26.54530000
 19.98460000	8.00143000	32.44510000
 19.55170000	7.94720000	39.61440000
 20.10650000	7.69500000	44.98840000
 20.49340000	8.02800000	69.35620000
 19.28450000	7.82925000	74.70950000
 19.65500000	8.76902000	82.12260000
 20.16930000	13.92500000	-2.53275000
 20.00400000	14.09750000	26.63590000
 19.74450000	13.63450000	32.64700000
 19.64220000	13.41480000	38.57120000
 20.13100000	13.66710000	44.89790000
 20.10140000	12.99940000	69.68010000
 19.84670000	13.69440000	74.94800000
 19.78650000	13.99080000	81.69050000
 19.80820000	19.45520000	-3.02607000
 19.95200000	19.93360000	26.46200000
 19.78130000	19.95180000	33.39850000
 20.81980000	20.28970000	38.63790000
 19.44820000	19.87500000	44.02800000
 20.19070000	20.31470000	69.30980000
 19.73500000	19.80550000	74.90120000
 20.84580000	19.74940000	82.21210000
 20.12160000	26.41660000	-2.76561000
 20.71770000	27.25810000	26.45290000
 19.65380000	26.16260000	32.47110000
 20.49740000	26.16520000	38.32870000
 19.83650000	26.76580000	44.32390000
 19.07730000	26.39460000	69.29860000
 20.27770000	26.53290000	75.09570000
 19.58120000	26.64600000	81.91560000
 26.21510000	1.14471000	-3.23370000
 26.01010000	1.94867000	25.88020000
 26.08890000	2.05581000	32.57620000
 25.73870000	2.38048000	37.94950000
 26.30970000	1.67840000	44.10330000
 26.89450000	2.04394000	69.95800000
 25.79480000	2.33322000	75.45430000
 26.02870000	1.45410000	81.68080000
 26.08440000	7.70176000	86.91860000
 25.71700000	7.67120000	25.75880000
 26.30490000	8.13280000	32.42950000
 26.27410000	7.58085000	38.17390000
 26.62010000	7.99371000	44.98610000
 26.15610000	7.87848000	69.67960000
 25.85890000	8.45212000	75.19650000
 24.93880000	8.43878000	81.15890000
 26.81970000	13.19960000	-3.33214000
 26.35650000	13.61330000	27.10380000
 26.34020000	13.62970000	32.59080000
 25.83420000	13.50810000	38.44090000
 26.15220000	13.53090000	44.62740000
 25.84190000	13.76330000	69.34700000
 26.55500000	13.94870000	75.11560000
 25.77570000	13.71980000	81.13150000
 26.45820000	19.67070000	-3.00840000
 25.66920000	19.86670000	26.76180000
 25.79040000	19.26680000	33.06320000
 26.08240000	19.59260000	38.62670000
 26.44130000	19.95450000	44.35900000
 26.23710000	20.01590000	69.46380000
 25.55770000	20.55450000	75.61470000